##TITLE=Ethyleneglycol14
##JCAMP-DX=4.24
##BLOCK_ID=1
##DATATYPE=INFRARED SPECTRUM
##OWNER= 
##ORIGIN= 
##SOURCEREFERENCE=
##XUNITS=1/CM
##YUNITS=TRANSMITTANCE
##FIRSTX=3.998485E+002
##LASTX=3.999913E+003
##MINX=399.85
##MAXX=3999.91
##MINY= 20.91
##MAXY=104.18
##XFACTOR=1.249972778172271100E-001
##YFACTOR=3.255474910768422400E-003
##$CORRECTIONDATE=<06/05/26 11:08:56>, <System Administrator>, <Scan on IRSpirit, SNO: A22415600520>
<06/05/26 11:08:56>, <System Administrator>, <Measured with accessory: 1102 (S1102SC00485)>
<06/05/26 11:08:56>, <System Administrator>, <Atmosphere Correction, H2O=ON(Low=0, High=0), CO2=ON(Low=0, High=0), Threshold=1.0, Smoothing=ON>

##FIRSTY=20
##NPOINTS=5043
##XYDATA=(X++(Y..Y))
3198A6290P385n582j620K115m53J209L541J370p77l555k475j507J119K974m891r05P229
3295B1467J160l362P1L35R43k081j328K238J589j08r69j807M44k281j554M005
3387A8762k224q43L372k525N63J500k661J764K826k284K67N84j452o6l5O17Q42j945
3490A7062j62M00j254j07K27n21M03N48M6N2j190j04J345J55r45M05j52o44J003
3598A6567R21j256j478J62J565L4j094j63J2M25K168j475n02Q69j468j288R10O08
3701A5517P7l62l07O64n41o13R96r4m72j86k68P47K77j067J36j19M80Q99j236p98
3815A3730L82L6R65L29j110l95J23M61J73o68M22J44p22L62r2l00N67l27j40M06
3930A4346n36M3J76l76M22m5o39K19J51j72k46j43M23k36p66N12K99j04p0o00l50
4049A2308K77L9p0k39m32j76J68K19j32k7L18j43k00J31n1M1O6P7K40k04J32N42j88
4181A2696J7K90n1N38K76l70M14J55j86M00R8RL16K00K42j93k14L60J6N8K27l28
4307A4970R2P6n78K32M64k29Q5K69k9j35j89J8M5O6J37k43m5K66k30l6L26j42j40
4438A5050J17r7k06m4J49lj70Q9J30Q4P7l27j63L84Q7k48j01J5J02P8q9r1L6L4j40
4581A4753m8J58L8Ko3j22J93P0k64R2J27j21Q9k4j08K10J00j50n6J11K11q2k55
4712A4861J33Q3l13l6K97l4j89J05K00L2n7r3l9R8N4n0OM7J5k5KQ0J8j10m4J34M1
4866A5216j81OJ62k7R8J63j96j54P7R1J64j6j06K23J59l5q2k24N1K73j15j40N8l2
5003A5433J25J80j04j01JJ9J93J41j45p2J28N8J1K2n6N6J52j4j8N3o0J7J20JTO5O
5158A6212m6p5L0J45K6l6P3O1mj2K6J01N9k1Q5P8r9J4J08j06K4K44n6j55J05J07R6
5312A6984Q5q2L1K02J19p19L57K44R6j18k1J42Ro2N5L3J8J12M9n4K2R5J23J06k9
5455A7797n5J3lQ0N7n8Q3J4j49J40J74m3Q6R4K9K2j11Q8K03p3j2N7j7J57Q4r2N6P0
5615A8691m2j5J01J46k8K7J62j04o2J59J9J26J02k09R0K77o7q7m7j0K33J32pP2q5
5757A9574j12J81J29q1RJ19J9j9J3L0J90J71j29p4J72Q8j9K1J6RL2N4P3N9l4p3J14
5912B0532K25K5p4P3J04n8TJ70J33l8M3j9m3K22J34p9k4p1N2K14MJJ11k2j6L1P3
6066B1645J44k8k4J12QJ41K07j12q8N3k8J05J44p0n2P0L9k1M1J99R7k04p4K84J59
6209B2747j27o5j9J7J60M6RJ95O7p2L3N6P0n7j25J83J45r9R3R9n0Q9O1q8m4R9J83
6363B3606M5l8l4j42K4K05J5j18j06J20L37Qj00J07j04M8L33j70k53L43L32j35j85
6494B4138J08J94ko9l7j4J02J29Nr4j8J33k1j29J33J37l8om2q3J4J22P3j63l0J90
6643B4732k01k63J62K3j25J02k5k36j33k3q6k25j12M0j29j86j17l15l88k17k23
6763B2055l49l70l58m52n87n68m44m25m73n15n92n89m72m66m87k77j69l20k05j6j38
6883A3783k7K30J43J51L21K94K64K49J81K33L51L62J86M0Q8O0j12j15m5k01l79
7003A6057k99k46m01l96j92j38j66p9oK5J53L02K77K46L94M23L90N41N07L91N43O23
7128A8949N62M78M15N20N26M78N54M01K55L45L24L31L64K67K51K11J34J46J55K26
7243B5892J64MJ35J60j0O6J31R7J07J1mJ01J31J43N2n6rnKQ9M9qK5KqM2k2o0R4
7408B7315R6o9J7Q2l3N2O3p5K8K4r5L6P8mJ4k8k7L4%k0KM5Qj11nR3n5m6L2oJ8k1l0
7597B7412P6J4n9k8l6L3M0m5kl4j08LN2K1Ro7o5ol4k6j1m3j5To2m8m6m7K9J7r2m6
7780B6771M6m5j05j5j8q8n3k0o1p1o1q3m9Ko9j45q4k3n9j07j02j05j37r1p1j62j17
7934B4878m3j85k23j20j77k11j55k02k50k54k53k00k30l29l14l03l54l47l59m06
8048A9963m10m39m63m56n06n19m67n24n90n26n04n50n23n12n62m95m26m95m74l95
8162A0127m17l95l71l70k90k96l02k01j97k06j56Tj27q9o1l1l9L2O0J8J38J73R8
8294F942J90K03J68K71K76K32K73K71K61L03L40L11L07L65L10K79L72L65L59L51K89
8414A3038L80L71K57L71L67K59L55L36K36K82K62J91J88J57R7R2J08K2n6on3j51
8539A7103j16r9j23j91l14k66k14l43l49k95l62l33k89l85l97k72k25k90j83l1j40
8659A1886j09J13Q7J40L16K81L24M58M48M35M86N62N76N73O64N97M99O40O90N76
8774B0242N62N94N89N66N38M91M53M61M18L45L24K98K44J89K43L29J59MJ21J61J19
8893B7450J36R4P3N0l3L8J51M8m8P2J24j8k4M8jP3J06l3J7J1j10O2J11o2L0N5r1
9048B8329l7J2J1J05M9j16q0J00J12k5l4k6q2%O4j6J5P2l1r8KP2Rj3K0k2nL0p3r2
9219B8252%K9J7l4TM6Pm0op0p6K0k9m2L2n4r7K1jo2jl7q4j5n4r6Nkq1n2n3p8l5k5
9413B7271p8j06n2rp8r1pn3j62j09jl7j13p5n3r5n6m8j19p9k3o2r1q7n3k0o1r1n7
9579B5305k3l4r9p6J9k4n9L1K3l8j4J4L3L1L3O0J2j1O5P3M5N8N6Q9Q6K3N4R1L9N8
9750B5920Q9L0M1R2O2N1O1L4M9O0K0L4L7OJ1j0JM9j6n0J5j6l6K8Jn1l4l9n3m8n2
9927B6286l5k5o4l7L0n2j15k3l1o8K7j5r6LQm4J1l7q2KL1Ll2k4N6J9j6Q2L8l4M0L3
10110B5839mN3N1L2N4K5OO1P8K8J6M1L9M5L9j2TL6K8j0NK9qj5M0J4o6m0J3%j0k4
10293B6371o5m1Pl1l8J2l0n8J5Pn0k5j1m2l8%Rl7n9m1m2k0k1p0m6m2q9k4Rq4q6m6
10476B5294n9l6o0j18o3m3q1j5l1j09m1k6r8n4j2k7l2p2o8j4j5k9l0l7k8oOk6l2J5
10647B4053j6k6M2J2k4K2kk4M7J9m7J8N7L0N7N1j3OM4K8J9QJ9K8k4j2L4J8J1m3T
10824B4349O1k5j11%m5o5Rj07q4jj44o6Pj68J3R7m5m0K6ql7k9O2P8j3k1N4J8n8L1
10996B3738M8j6K5jm9N2No8L9Ko1J3k2k8L2J1qj57j13J30L1q5J9l3q9L1J2j57r1P5
11167B3285K2p7M0K4j70O8P6p2LL0pj2j19N7Q1j06nN8n4L7Ko6P4J4l4L3l7J3L1j00
11338B3089Q8J49l34J05J65M1KM6q0rJ32N3J7M7k3M6N0j22R8J10m4O1N8l8J02J13
11487B3922j81rJ48J14KJ2P6l5J1P1l4K1J4k1R9o2k71J05K1j13Kq1j98N3M5j11
11635B3600nJ43j19k22K71O0n1K25J05k5J43L8R1K93j66J51L28N8J13K30Q0J54J43
11767B5638j6J89R7l6K30J99Q2j02J61J72L0N3Q2QR1R2M7J07Q3N3M7J2P5J08O1M5
11915B7608k1R8J45R2R0L7RP8k3q2J88J20j3l5R3O6j6N4L4j5Q2L6j03J90j81nJ62
12069B8688j00lK03J3j57J16J22j4q4Q4nk00K33Q2j7J2k38L4J50k5J54J19j71K3
12207B9019J01p3M5N4pQ2%q1N8M1k8J1nL9J9n3nJ37Qj74M4Pr4O5P3J8o3L9J18L3p2
12384B9356M7Oj95J66J22p7J1K3j48J59L3n6J46L94n15o9m85M74J92J2p7N1Jj16
12521B9455P8J02m3TN8n6q7J44P8l8lJl6L4Jj36J22M3k7NJJ6M3j0lno1L0N6m9PL9
12704B9716n9j5M0k9JO6Ql6l1k6J2O1K1l5qln0oO3nk8M7lm5K0j1k2M6j1k2J3n5L1
12892B9645Q7p7l3L5l8O9P3l29J43O4j12M9Q5n7j9j07j34J94K4o7N5j2j32P2J4n4
13041B9438M1J0k7J4l6j5l9k39K20R4j77M1R3q3k6J9k6M5Pl6K6j40k8J27o0l9Q1j9
13200B9266l8R7K41n95J32J4N4R2ok5M6j2K3M2q1L0Q1k09J23J35q9LQ3o3Rj8j77
13355B9158K30K5j84J26J20lP1J61k58JP4M4k7m9k4O0O8N9J3j52j56K30J12M7j0o9
13503B9667L7L8k0N7M3kJ2l5J3R8k66R6J14k8L4J13O9k57Q5L8J06j6j45J24O5j48
13652B9892N6J19mm8K1j5QJ16L6p3j4r9J7J32K2j48Q7L7Jl7%R9m2j17R0O2Klj9N3
13823C0231j3j31%N6mM0j6NO0j27Q1M9r7J1O1j9k3%O5O3j20n9N9kM1Nn2N4l9p3J05
14000C0211L6j58J19R2l0m2M8J2o8K3N2lK7L2rq7l4P9N1j4k1j2%Jo2mR8M9k9m8
14172C0309K6J10J0j9p2m0O8M3l1l5J7k7q7R2R1o1nO2q8nR2j1n8QM1m4j28J15J02
14337C0475k50J25J64o5p8N5J3K2j7o1J3j8J0K6m9O8Q4n4OL2n1k2KL8N3p0l0km2J01
14509C0478O2r5L4N3p1J8J5k3L2n5k5P0m7L2J36j29j35J29M1j5J0n0qO8jk6ML3
14669C0535m0p9K6O2J6j4m4M6J00o0TN9Mk1k2n3J1M5l1j19j1J40N8j05k5J11N7n4
14828C0532n3K7N5j6o3MK2m4N4J02q5o4N3m3%L4n9M8J4j26P1Q1p6N7L9j3Mo6J0O0
15000C0559p6k5J13M0j09k7J18k0m1P6q4m2Q9r1L8J08j36nK1j00J23p0j33J13J7O5
15148C0521M8k42J25K32j59q7l5k5J25j05p4R8r9N2R0j53O4N4j20R8P7l1n3j13R2
15291C0380L4k01K3J59P1K3n2O9m1k68J03N2p7J13o3o0K14j29o1K08j98j83K14K0
15428C0350j62M1J97J13p7o7o3j36J05K25KlN1j09j32j8P6J0j00J11J55n5k6r7k69
15571C0122R2K10j54O1J83j86oJ59m7Q2N4j48o4l0J29J94j02j39r6P8K87j40q6
15702C0453K90j20j1J13n35j67L84KLq1k8M56J28j48P3pK5j83k90J85P7q0Ol7L47
15845C0855j55q19L57O89n25k38M73Kk43K53M82r9m06o1%N9K54Qk8m4k96J2K77q5
15982C0722j49J83J62j83j04K67R1p2n8l42m8K44k01J53M72m4k2k55m26L34J08m29
16108C0403K00J87OM23k29n68L05M15M7l7m43l24M08L97j32r4K4k34j90K87K37j0
16234C1078K82L6n24J12L93m39k33L47j5j23K03K91M1l40j47Q9p4J04J52r5Q3J5
16359C1236k14On7j62J54K16L4n7k5l4j84q6O7j1R1Q2n1P8j14k57Q9K0j78M4M5J9
16508C0751J44m3j06J89J59k52k04J79N4j14M8k4N5J43k09j03P1j15K10K62k14q7
16634C0794Kj08M6l7K3J33k24j13J54k7J20L1l20L9J38j98J14K50j47j40M2K6J02
16765C0700J97O4k03k43j3M6q6o3K0O8J32Q3k6j6j05j47J15J88m8j04o3l6L8qo2k4
16913C0404k1O2J05o5j42N1K24J17o8n0Tm0M8N0Q9j2k15K8J50j19l1P2L3J24j55
17056C0589j31L40O5k11K4j4P1ql40J86M17l87k40L36k57l74M07J51m10J74L65j47
17182C0606M0J17l40k79M40P58k60p57M81N32o60n76j21O39J021p79n68O43J46K1
17296C1104k09l72M29J0k87L62l15j81O35j29k85J9j02K95k03m80N55J64l99J25
17410C0736p1P1L61j27k44l23nO71k41l73O27j19n63K03j0j7K58k56k94J95L21J14
17536C0914k32k99L5K03J37J42J90k05l57J39K01j34p2j0L4J9k01Q8K72j59q0J09
17662C0734j31M2J73o5n5l0j43J0Q5k06j56L87J86l92J4K62j87k0K22j6j27j28M4
17793C0503J47j00k3R2o4l1q3j0K20OJ3J60r1j08q5l7L19l6l66J16M5n6J85k8J9
17936C0707N2l23N4K08k70k8J94n6m8M6J53J8k69J21L24j91k74k2Q4N1k5M9N0k3J04
18079C0686Nj70N4J03o2j0Q1M3q2p4J9n7M9O7j90M0K49j10j28R4P6Rj79j33J18
18222C0498N1jJ2j90m5K15M0j7Q2Om8q4n2O5L9k5k6MJ13K4j50KJ12o7r9J3M8J4q1
18387C0453k0M0k1J38Q6j97j2Q2j16O4Pj98J24J4p2R1%o7M0j28J46J27j84N6M5j82
18536C0316J74mj69K75L2k27J10r3q6J60n1l6M2QJ20r1j74J76j6j14J47qk7J16q5
18679C0495p6M1k8O0J01n2n6J7Rk3L1N1m2ON4j03o3P3kj6N3Lq0J6P5n7n9N1J8Lm7
18856C0453q0J04Q4m1J8ol2L6k5LL2q2K9O3j18j4J28Pq0k5M3L0k0l1KN1Rn1L8L0
19027C0555o8LM9%Lk5j4L1l3rP0oo2k8J5L2kpL4%TLj1rMJM0l3m3K6No5M0M9r1k5N8
19238C0487m6L0J15o2n5O5k4n0l4l0R0Lj02O9K0j29L4P3o2K5Q3q4o8J05%q0Q4J2
19398C0469j17K4O4K2Lm9kn3r3R3K9m8R5n1q5R0l1J6J09r9j1O2j29oQ7NJ3j12n3J70
19570C0412Qj00M2no6m5k7N3M4j2Nn8k0J20l2j61N6R2j18k7J33J7l5J5p6q8P6J18
19730C0321m6q2M1mn5O3K1n2M8K0o0j4Tj8J2j0k3KM8Ko1N5P2p6m5K9j3j7K3P7k1
19907C0223j54RJ04k5lJ7l2J1j8k1L2j5pOj3O8K0p0K2J1l2N9L5l1j4l0OL0m5l1K4
20084C0136J9M6j2j22oJ19%p0l5KR6L6o4M6Pr3N3K2o6R4M1j21l1Rk9j5j7J9J4k5
20255C0053K7M4Oj2l2J7P1j9j26n1Q7N1l9j3%K3M9k7j8L5j8j4mJ0R6l3j68j8P0Q7
20426C0134R1p0q6L2m3TO4J2lN8j7n5L1L4j6ll0k1M8m9q2J15Q7r5k2M6k4j9J5Qlk3
20609C0071j7RJ6OL6L2n4l9J0n7J2R8m8p7K5P%j8k4L4m5o3N6K6KQr1j8R2j0p4l5
20792B9870M8J02j9q6lJ8K4k7q4Q0R3r6j0K8j38jJ33o4p8P5J1p4kO7mq2K1N4p7k5
20963B9754P0mk6j6k7J4l3m9N9J4n5K7J8l0jpmM3Qo2j9O7or4K0P3m7o0L4L8k9m3P
21152B9634Ol3MM3Pk1j8JRj1j8pJqrK1J3k7lNl7j0L4J0k2j8nj8TQpj4K4kl7K4M3j7
21369B9527l2mPkl2TJ0J3PK9j2m4J0Pl4rPOrm3J5N2m1l5L1l4l6N8Kn3M4L3p1mM1
21569B9372m3k4nn1KL0j7Jkm0k5KJ9j5m2kj0k0Rk9k5mn0MN3k7l7MTpj7J6J8l0k9l0
21775B8953J0N7k9l7K1j7K5K4q3J0O8m4lM0m0k0M0J7k6qL4j3l5J0j3nL1l1n5rJ1
21952B8883J0j9jL1k4l1Oj8k2k3k9K4J5l2qKoPk7k8K1j2l9J9om2J3k5o6K7J4m2K1
22140B8593oo3j2qj8j1k8K4L6n9n7Kj0k5o%j4Tl9n7J7J0p9OL6q1l9L5K2J7q3q0P3
22329B8082j2j25NK2q4l5K8k1n1j4J6nn3n5j8l5n0k0l9l4Rm1m0J0o7q6jJ2no4j09
22506B7120j8J6o4n6ok3l3Kk6p5m0m6p1k1n1o7Pn1p1J4m6p9ok9r2r6k1J4p0p7n6o9
22689B5813%k5p3k1r0j03j6q2p1rn7k7n0j09m0p3j07l1l6m8o3q7p4j34q7lr3o9l9
22854B4096j22p1p4j07l6r4q8k2j41j35k5m5o4o5n2o7j27p6k6kL5o1n9K5k3K7M7
23008B2648l3N4M9oP3L4L6J04L6P9J25M4N4O4J06J43MK0J54P2K6R4R0N6K5K1M4P5
23168B4291O6j8K1J10nn8J0J6K6k6l1O8m2j28l3o0m5nr2o0qn8p3p8m2m4q0j9r8j35
23340B3370M4m5j41Kp5j18Oo8q6Rk6o2m8k5j2m9Tj4kk6o0k5J3J1j4n2J7M0m7RK0
23517B2497l3P1L8l5N5J1J5J15K6J0R1N9N2N6R4J27NjJ48J38O5J02J57J07P0J46J05
23671B4291R0K32J54O1J56Q8P9K05J54J23J35P4J04J65J62J05N6J35J24N6J74J63
23797B7086M4Q4Q0M6O1M7J19J03LQ2P6j2P1R0M6M4pL5Q2K1L3J7k7M5L0j0N5K5j5
23962B8354J4k7k1P2N0m3k9K0knJl3j9Nk0J1M3Ql2m8KM1kj7qLlm9K8Q1q3q2M3j9
24157B8234k7lp9kP5l3m2K9k4p4J1O0m1o2L0j4q5qL6l9n3L6J4p9JO0n5q3nJ0j0l4
24339B7744k8J1J2n6q8K1M9m2J8K0j09l1K3o9k1om3Kn3m6O0pp3n5m8M4O5p9j01%R
24516B7123k5j5n6o7L5K0p3l5j0TJ1m0m4o9j18KK5m2Ln2m5K7p4j8K7j29l2M8p2m5
24688B6250m3k3J4j13j8O7j27n2M1q2j5np1rl4lJ9j12l3L2j35r4N0j0p7m5o1r4RL9
24859B5265p1k6m8j40J4M4n5l6j13k7R3j61j28R4o7p5M3n5l0rj08p8n5n7l0l1Pl0
25019B4130j08o8rJ3m7j20m3j4m2J3q8j66jJ7p8j7j5n9j4n6r1Ll6j04Mj9j09j7j4
25185B2845o2k1r0r8l4p0kj3j41rN5j03q8l5p3n9n0n5n3pJ3q0q1m1n2J1o8j48M8
25350B1439N2j29j23m5M4j1j30n1p4p9R8k7j57k5o0m9L0q8j14n5l2J4k6p8r0n3M0
25505B0221n2j03M9lj17p8l6J7o0j17K6k0j10rl4p0j4n7q0k6J6m3j12j1J0n8rm6p4
25670A9000j1n4l4j3l6M3l9r4nj10n9O4n9J1Tj53OJ4j18Jj9n6j6j07k2M2n3K4nj22
25842A8031l8j8n9j3L3J0o3j4M8n1j00m1M1Jj29%P1r0LN2o5j6p1n2N5p8NR4j06
26007A7440l7J8o8J8n2o4O3j7J1qj21N1M8p0L2m3n7P0pl6Tl8M1n9n7Q5qo5nM0L8j30
26190A6977p6J18po8K1J6L9lk9Km4K9K5n2P9J7j08%k1K2J06l0l7j7l1Q0J5m0jl6
26362A6946P9M5j11K2L1l0M9OM6%j45N7J00n0kn2JR0l3N0K8r0J17N4r8O2K0j0N5
26527A7237j9J7k9k6J45j0q7N7MJ2l3p2J23L9l1Q6p7pJ51n7j7O9k6Q2L1r0L6M7QK3
26699A7586NM1L1L5K0n2P4J14k9k5j8J6P7NK4Km7J13N2m7R2K0QJ03l3rO3lP9K7p8
26876A8246M2L2l0K4P4J20M5nM9j2J4P4k1k5RL8R5K3M3J29J6n1kJ7N0O1L4j7J0R2
27047A9174M0Q2J15p4J0J09p4K9P4k9J62N5j57P5R8k8M5M4P1P7K5M9l2J2J07k9N4
27201B0084J41n3J8J35L1J9J1L0J03K9n7m0P4J21JN2J12jL9TLJ20J8p2P3TO6Q2M
27367B1255M9N2J8P9O2K8k8j8J27K0rJ95lj30J35J22K9L6j9Q0J15kJ3M5M7L2J8P2
27527B2420L2M4J06LL6L0q1J44J77q3P0R1j3J32J1q7R8M9K2Q2qO6J00k9M9R5QO2R0
27692B3716NjP3O7j3MN1TQ6Q4L5N4L6l4J7J18J06N0L9L4N8N0l8M5J27o2%K37L6j12
27864B4919Q5Q0n1l1Q6J51K1LJ38mr1J44J46OR4P5p6l8M1J00J40po0J28R1m5M7
28018B6092P9L7L9k3LN8P8J52L8j07L3P2N9R6K3O3P5n4L2P9j8P5J06M1N4J3K8Q7J
28184B7311p6k5J12J29l6nK2o8J51J66j41m7K08J48m3p3J40J57n8L1N5n5Q8Q3j8P3
28332B8229L9j2N3MJ3N8n3M1J79pq5P4P9l6j7O2R3P5j4NR0J5j3R2O4m0m3pQ4J02
28504B9124k2LR2l4q4J38J03j13K6J25M6rk5j6P4M6k2L6M2K3O1O3M1o4m5R3kj7J51
28669B9834K6l0Q0o1M2J29j73oJ43k2K0O2m4M4M1K8R5m5k2J19M5K9K2j06lM3l8P0
28829C0322N3p0L7P1r5K8J61mp7P6N3j22K8J28l1o8J07N5q7J14J61j98q5J96l6l9
28978C0678P0p3L8J79Lp9rR1K19k86j40J48mM0J05j72n2J44jN0P3o7N5R7n4p1qK1
29138C0995m2k9J27N9r4Mkm0O3l9l0J39L6r2p9MJ21M1o1L3O6K3J8j1Tml0o5QJ02
29309C1210J1k1J6q1J4J84j0p8J38j64j65J06Q0j2q9o5J06OJ07N0j12j3K3n1J01O1
29458C1352q5j2l9j3J08M5M3J03j97j5N9n6k0L5j1k9k1N3J8j07l2J10P4p4l2J78
29606C1435J5l05Q8J41r1m6O4J1m5n7kk0oJ22M6j48J24K1j05K9P2p4k1J70P2k30k1
29760C1239J92o9k82J92K07j29j58J81N5k22P2J44p1n9K5M2N1p9L7Q4j87R5J41k03
29897C1298mJ06m0j2k6m6M1N5J59L29n05P5rj25J37K39j01j85qn1NK9nJ4qJ2N1
30052C1425k6m6J9N2M6Op0l7M0o4pJ22j07r4J25O5N0O1j48JM0o6J8K8l8J6m5l4K3
30217C1355k8L7mo8J27P0m7M1k1j14j4J5K8J5l9K4L4k1Joj5Pk6l2P9J33j03j43J28
30383C1413O4p9N2O1j39J9j9n0J2M2R7N7j65JL6j4K1Tm1p0k0L8N1P2l6j93J31Q1
30543C1443o2O6J28j36j41Q3Q5%j39k5R1l8m6L9J1L2K2J1N5l8j4J19N9k59o4J86O7
30697C1535j60J14k1r0P5o6l1J68%j72M2Pl1K8L3N4k0j12N9J67l6K8M29r6n00R4
30846C1498K9k48o3J20J28R0p4j32N1O0J6m3k6J50m5r9J06L6j85qM2J2P1j7l5K1m
31000C1451J0l4l9O8O2n4j50Q2J67o1p6M8n4q3m0JJ38J19o0m1N1O7l3q5N2l3j08J00
31160C1465L0q9P1L9l5k9j13N9Q4j08J27O3j81J01k1j51J15N8n2k1k2J26J04j43
31297C1477j9J04m2m0J3RJ7JJ9o4j03J14M6q2J4Qn7j8j6O2R4j8n3n4m4N5K1n7K7
31463C1414K6k9NJ2l9lN6jl8K6N0K7k5q2K1L5o1lN6J3l0rJ5j2NO0om1Kk0k3rqTNJ0
31668C1391O2J24n0ql4j06N1L2n7L0j5m2N6K3m0k3M0P3k8l6L1k9j3J7m5L4N9p2m7
31834C1378O5J8q2j5J09J8p2J4L1J2Nl9Jj7o2P1O6m2K8Lo1mKM7M8n4jQo9
##END=

