##TITLE=Ethyleneglycol11
##JCAMP-DX=4.24
##BLOCK_ID=1
##DATATYPE=INFRARED SPECTRUM
##OWNER= 
##ORIGIN= 
##SOURCEREFERENCE=
##XUNITS=1/CM
##YUNITS=TRANSMITTANCE
##FIRSTX=3.998485E+002
##LASTX=3.999913E+003
##MINX=399.85
##MAXX=3999.91
##MINY= 18.80
##MAXY=107.88
##XFACTOR=1.249972778172271100E-001
##YFACTOR=3.371389472217027000E-003
##$CORRECTIONDATE=<06/05/26 11:02:59>, <System Administrator>, <Scan on IRSpirit, SNO: A22415600520>
<06/05/26 11:02:59>, <System Administrator>, <Measured with accessory: 1102 (S1102SC00485)>
<06/05/26 11:02:59>, <System Administrator>, <Atmosphere Correction, H2O=ON(Low=0, High=0), CO2=ON(Low=0, High=0), Threshold=1.0, Smoothing=ON>

##FIRSTY=18
##NPOINTS=5043
##XYDATA=(X++(Y..Y))
3198B1204Q068p971k013M470j917l030O522n40k477n896n338J0136K846l713J43m613
3290A5881L461P760q993m901P674n36O53K285R75P741o537q25K37p381k381L307
3381A8420K197M10k805l154M921J189j876O64o53q97J774K85j829p95P33J542M75
3478B0601p6j767J59R36k992o62K437j232L8L936j236k431q2o02N72J265j746j245
3581A5873N39L30J56J121kj495P52J901j229j141J56K0M96P06q42j67l43k69j73
3690A6389o79J3M6j12M82n01q92P93J812M74j330q08M28l93l5J282r74j35P73m97
3804A6136j173j154P4J420J53o01K38p62j66J221J5o36J61p1l83k18M54L69n15K01
3918A4763N75n07J02L43p41NM93n64l28L90j02n42m63o8M13O9l26k13j73J6M93J34
4044A3769o58n33N32L22n80n02k20m4L72pj29J36p04l38J163K20p33N09L47m65
4158A2457j2L27L14r7l58Q6N32P15L27j93j08nO53M42q86l2J078l4l52Q4J98N28j98
4289A5466l15M47l60j20N20p84k34R96L6L0K00m52K89L56n85j18K67l0l2j79k88
4409A5110j29P4J30L2J39Q1j54p7l0K1j23l70J75L68j24J49O1k25K66r4m38J44N
4541A4991j05K08r5Q8K80l58l54J18K40N6k45p1K14K9Tj4p5J64L7j84m9j2Q8K01j27
4684A5054l47%L36N0j98J12J23j56J0J55l2TJ16n6l04J9K60r4j42L6l5J02P9j53
4821A4903K2J08o1o2L5J40Jj64R3K14J05N9r0j00n2q7P2J00M1J44M2j9J6k4kp6J54
4975A5512M09k45m28J53R5O5J28k06O5K10k01pR9j21P8J17j1N5Q0P5J3qk9m6K47
5118A6099N5l41J29K34q1K26j27m77K69L26j65k8L8MN0j2J9N1R3M1m7J87J40q0J02
5260A6705K3k6K02Mr1o9j36J63J84j24p7M3K13N21j257N55L49K9J45q6j38K57j37
5392A7252k7L68l01n3M52k54j00L84N5N6qr2J41m2J6K09J9J16j16k98K92Q2k99
5523A7852K07J95n1J7j62P8L28j16j99J52K09J28Q3n5j14J04J11j14R4J15j63K14
5649A8913K90k03nJ59qJ95j6k54J94J97j19KMqK15J99J5q1r7QJ42K3j53Q9K79l0p2
5803A9878O9j09R1K89j30l5L40m4j92J40Oj22Q8J07Q8Q6k2M4R4J7Q9O8OR4qKJ74
5957B1108n9q7K15O2k4J32L5Q8M8k62j0K87J3n8J00Om0J47K28j9j30P2Mr1J71J40
6106B2076r1KK2J1J91N9j70Q1K30m5o2J63J87L9j83p8K93J00k21l0K4J09K61q5j12
6249B2771K26Q7RN3n3R3K0j50J60J52j29m7O3J59J43n7r1p3J24K90p2q5J71j68j75
6392B3421J78O4r0r7P9L56J46j05j57j62L20L58l56j46M62K20k12k26J43L31j04
6511B4423k16J01Oo1J13L0l4J09J06n7m0J17K4q8P9Tj76j38J21K8k18N6K50k28k49
6654B4137J98l5k03J43l6l16n4M9j20k00j64j07k15k68j40k63l54j93l42n28m11
6774B0578m60n39n16n98n49m90n51m85n95p27m34l37n12l09j38k69j35k8k18m0K51
6894A2899J56K46L98K22K18K75J26K16L90L37K53J22K5R9J9j83j62k04m20k80j29
7014A4623m96n07m5j59k67P9n4j09L16K83K16M35L57L07M09M90O14N23M47N61N21
7134A8544M82N25N18N42M81N00N12K31K87M53J97L58M93N1K12L86m7J59L16k7J90
7254B5363K30j1J65L1j8K88J0q4K08j3K5K78j7r0R4j2k6P8N7m4q8K5P8N6%j13O2
7408B6532J87r7n4J51k7m9N0%N7K2p0NL7K5Nl2Pj0rJ6m4L6K2j42L0J11r4nQ5m3m5
7585B6657j9QM5j0l7n3j6O2j9qL8j33q6M1j7R7O0j63oO6j12k3J0j20n5Kl5l4o9n8
7757B6013%j9n7n0jpq4o3j8p2o0j1o0q2p1r1l9j5r7j05r4j28n9m5j47j33j19j31
7917B4155n6j29k25j28j67k33j29j60k08j68k67k87k19k48k05k50m08l51l31l85l11
8037A9290l96m83l84m10m60m71n44m75m66n62n11n63n98m59n04n33m51n04m71m03
8151I642m21l70m07m24k89k64k86k70k63k32k17j31p6j44r2l0m8k6p6J1J90J17
8277E894R6J27Q8K29K50J43K49K65J90K60K95K78K44K64L71L52L21L39K49K68L88
8397A1160L60K85L10L94L35K23L48M01K49K52K78K30K82K65J90K09J60P1J47J65o5
8516A6249j47M8K9j40j07j10j68j26k25l00k06k95m04k89Tl75k98k67l70l27k02
8636A1681k89l01q1j5lO5L1J51L11K68K66L25M49N53M76N17N76N42O44N91N11O17
8762A7885N52N89O82N00N40O25N14N69M59L69N70L61J63M27L41J40K78K61J70J22
8876B6117j0J16K70Q1LJ42R2l7N7J38QJ4J45J8p1M1J8L2J20L5J7L1j22p1J36R3l6
9031B7377NO4l2j10JO8N1O0m7p0Q6L6l2O1n0j35L8O7k9qN7L6j04p9J32N9r4J7K8l6
9202B7417J4p4j16L4O3om0m3L0Jp3K9Lj29m2J1j0M9m2j30l3pj2j0q4l9mj12n4L9
9373B6630m3o8n4q7p0n2j6j5j24q7K9q9j34L9l7k42j24J9n4o2m6j16q1m4r6o8m1o9
9533B4798n5r0j20k2Qr8j14j3J9o9j21n6J2j7n5RN6j2m6rL1N4K4J3M4J8L2R4N7M2
9705B4414Q2N6M9O1L3O2J01Q1M4K5O7R6O0N3M0J6O0O6J8OL8O0l3q0P3R6m3m5j0L
9876B5549J9m5n1k3o1k3j2p7m6l5n2mql1p9j28k0J7o5rk2r6j2nl7J8m0p2J2J9J5Q
10059B4604rL6mj2J14N5m1M1N0NM2M3L8N3K1jM1Q3N1%J7L2L9P1L5k1lQJ7M0kk4J1
10247B5430J2Tk1q3k6M3j1n0l8k9j0rj0j5p5o4K3Lo6k9J8k3m3pj3k9k1n5n8j2n2r5
10430B4597k7j7q3n6no9j06n1Tn2m9j11o6k4r8j9J4j08n5j7j12n4j2m8k6n3o2j5T
10596B3150j7l0k4%l0mJn5J1L9l3%J5qL5J8k2K8M5J6J8L2j0J3N9pjP0j2j3Q0K7j1
10784B3380k5l4P2N6m4l2l4ONj03k3qr8rn7j33j8r6r9M2q5p6O0k7j8L1o0k9O0K4
10956B2628K2L0j1PJ6j4N0J9o9K3M9l8K1On6N3Oj01PK0k4K8Ql7j14n7P6jm9L5n7r5
11138B2381L3Lj22o9L0J9l9L7L1j61K9M7p6J7J8k6O9m4o1M7m5j4M9l1ok4k9O9pk2
11310B2103M0j2K4Lo4J12J22j97J6N7K6M6M5J2l4J1M6L8K8M7Q3J9j14O9Q0k0Q2O3
11470B2731m6O3Q5j11J0Q6P5J5lN5LPM3l4RM7MM3m2j79K4j8j02k1m4j14nJ9j4k4
11641B2562N2J20j46J19L8n7J85Q3kJ95K8K1K92o3P1K60O5J31K16Q6J34J03L8K50
11778B4781N2j3J82J41J28j5R8J56L7N3R9L0Q6M7LJ32J28M2L5L7O9Q0J37K01p3K7
11927B6680J67J5M7Q6J8P6O9l1Q7N1O6J2j1P1N1nO7J1kJ43K3j83J07R4j4n3M0Q4l
12092B7763m1Q6M9jQL5l5j0J11k1PJ24r2q1P9MR7O5p4K8K9qO9l4oR0JpN7J3L9n2l5
12281B8257M0l3o8N5J11j35N7Q2K5n6l9RJ4M1L1K9Om4K0M8k5K7TJJ0n1J5J12o7k6
12452B8473K26L83n14r1l93M02R9k6TM5M7l2l5J2PjK5k6RP9K2l4lK2K3jo8J00L6
12618B8760k7l0j9k1N1M6j7Ok8n1P2M6n3K0J2m2L2J9k2M4M7Ql7q7qM5M6M7m4m2M6
12795B8819k0j7P4j6k6O2j4l8J7rML5RJ2k0k1O2K7o8k0LQO3Jj05P4om9N2M0jTp0J1
12989B8872R8KJ4K2m4j5L9l4o0kM4K5jJ5k2j34J97l6p8N3J7l6O9M1m2j3Tk0M6K1
13161B9025o8L5O6O0p5o5n9j9N1J91n71K08K24J4KMm3L4L7j9J3k8k3L2p7N8P2p0%
13326B9009J12J0o6r5j1J08q6n4J73K0k9L4J52m8j68m1J44m5j26P7J4k6M7n4p7P6
13475B9050Q4N6p2r5P3J6o4N2L7k7j5k1j6j1J5J94j65k7K9j9l8q62J110j44L1J5q6
13629B9100m2R7j2k8L6j2LkoL9l4PJ24k8q9M2n0j8Q6q1M9O7q4m4M7J5j1j4PL7k0
13806B9181n3M8M2p5j7P3o8k6N3L1J04L7j22J8l9o8L9j6qJ11q2k9K5m1lk0nQ8m1p0
13977B9067J02L7pM3l6o6P1J5l4l2L0j2q5J10P7n7jL4pn3n8R3R7m9p7J3K9k7p0O0
14149B9207J9n2O2M7q2J63K2p9l9%L9K2m5j4Mn2l0N0N5J1l3J1k%M3m7m2M8l4m1P0
14326B9281M2l7j35R5J46jr3O6Mq1pN0ro9KO0l1OK0lQ9Pp3M5m6n3J17m0j24L0PK8
14509B9293O2j8k1QL5Po6L2J5q4Q8M8j11P6P3q2L0nk0N6pjN3l4l3n9K2N8j00l9M6
14686B9322l9Q4P8j36j7J39qq0L0N5r0k0K09o1r6M7r3j00R6K6o3k1O3P3p5l4N8n3
14846B9294J4Q4j6n4r6P0K02j24j36J02kK0l3j67J32J13j73K1J30N8j5j40P4Q3j83
14988B9258M7J27p5L7N1j9l8j42K8R8q2J9O3k5OjQ4M4j21rk8q7J19o0r3K0o3J62
15148B9320J33k74M4K12r5p1r4o5J40k2k0P8j14K9J62n8j1K5j32j04O5P2j02m4J75
15291B9249Nk12l8J77J22q5k5P7j65j8Q3j73J12J66k64J18K61k93K1K90j36j42
15417B9130O0m0q7O6J66m6r8M2j78q2K96Q7j5R2j54nK20j43j18J50q3j01N0j26J33
15560B9216K10l75j28M25k5k17J39m2j26J99K27m2j95j9j00m20O4N18J06r5j54j78
15685B8988J37km2L32M2k22o3j10N0J92j33j51J42J37j44m7J66N0K54J26m37K6
15811B9291J91l60O5J99N2K46l25m00K60J36k9j73k23M50L43k7K35k05l85r7l26J96
15937B9114O22m2r1R2j2m6r5L0p8m8L56o3l09oj20M43K65p71K66M15q59K26O32
16068B9921k64R0k47k90L75j18r6q3m50P15P67o47l84OM09N40o93l74O92j53l29N24
16194B9911K70m12n74Q9O38j3r2O16J62o22k13J71j39o7L14J07k78k11L35M44k83
16314C0153l61J17L4P5Q0k57M8J55k29j4L5q7K59K36kj51l54q6L08N0l05q2J74
16445B9796l3TJ69j23j65J00moj11k00K97J72l28J3J61J8n6k09Q6J41j58P1R3Q4J71
16588B9946l18j62J08k40K82L89m06r0J14j31J73K7j3P9m38q2L35j38J31J43l79
16708B9330P5J37k39J85K18n1j3k00n2K89R1J3k3l02j52R7q0j29J8j1J02K83L5j31
16845B9490q4k03j8K47J6p0J3q3kR0p2j96OK87M9k07k6m2J04L10k07k24L10O5j40
16988B9413J25P5j53j51R4P4n2J97j26l22M01O8m06L33J57k82M0j26J13K62m21
17108B9313n9M04q3K9J68l11l35J53J98l14n5L98l5J28J06o72k12M77M43J29n92L41
17233B9619J062r03q74N15K81N75l85j239M82Q18k64l24K4J81k19J55O20n72j08
17342B9444P00m60j53J43m82L22j3k72Q52l84o37O57m21j15P97k91k7K0l88N67l22
17462B9537o91P21r8l91M35l04J63P90m42n63J85N5p8j47j97J67N03k7m19M76L33
17582C0008p56O3P47k51n47n3K76J48l59Q5M13k64j70J65L1J48j28k14L10N6l68
17702B9340l6J63j89l90K64M99k58q7L11j88p3K89m1k02j4P9q5k11R9J49j4J7q5
17833B9337N3J49j42P5K10k27k66l4K68L76j83l55O7J38R7j23k06J89J6k92j1M5N8
17965B9239P8o9K3L9K6J76%j23L7R0M4k97k83K93jk05L49Q4k34J54K3j18P8m3j1
18107B9349M8l2J20k4j95Q5P4m3J8j18KJ67r6j12P6O9Rj64q2K04Lj12J44j01j90K02
18256B9301O8m9K02l2k06L0K2j2N1j9n3l1P2J02j28o7R6j30m6J79j5K1P0j65o9
18399B9192R5P7P5j00j57J04J27n1l0r5m5M1M4kL6N0j72j07K80l1j47J58po5R1r4
18547B9267m5J70Jn0k0j01N1N2l1j8n5J00J07j89lJ97j94j76J85J12J5L4j4l9r3p8
18696B9185Q4P5j5k3j0kMJ5j9k1R0K7j02L0O5r9k2J13n8j44P2K6j23O7Q6o9L5j9
18856B9248n6J04n9j9J91j05o2K55q9k57J10Q1m2j5r1L6J94jj55pM5m6PM9rJ0pj4
19016B9296L5p4q1J21P8m6j8TJ4J7n4PM2ok0q8mJ10k8PO7j21j6K8l1pL1p0Q3p9jO7
19198B9241mj38J38J23j52n8Rl2J38P7j55rJ17m6q2k9J4P5p5r7J23J2j10N7j4r1
19347B9032J04P7j30n9J25M9p7K9k7j68R1J61o1L9M4j55m6J4m7K8K1k2%orn1J5J30
19507B9101j0q0M3k0q7J8Q4nq8N5J14p2m3K9r5m9L5M2O2m6j1O9j47q5J54rp6O1r
19672B8935p5qJ11J12j14r6P3l9k9Q0m6j0N1r1K0J17q0p2L3qL1J5n7MJj3L8o0m2J10
19844B8891no1P6j9p9N8lp8N4P1q2j35J6J44L2r7mQ8kq0pL1m2l7K2L5J2o3pJ02
20015B8831l3m1J26j5j02N6K9J8L2j09j4O3j19qJ02j14n7J18J2k2k1m7J20J28r7p0
20164B8766N4l5p1J4M0P5Tq0j17N3M3j10o3K1J1K1j3L6J44j2j05N4J3q8j4MM4L2
20324B8792r5k0K6m2R0N0j36J8J00o6o1O1J03Mj31r6rJ21J82l3j09j0r0kR1n4P0J24
20484B8878j40l3J23qL2oj50%O7p6l5R9P6n8p5J5jmM1j9j1K0n5lN7m6k7O8J4n3
20655B8690n1j7N2O8l1j02mQ2k5r8K0Q4n5j25L6J17k3n2K7J4Ol0j09JJ08j2k8N9l0
20821B8572m6N2o2r9J06O7r6J6Tj23L6J54n9j41L4J09l2r4N7M3j02J9O3j08k7Q4
20969B8439j0OQo3kll8L9Pn4RK7j1j6MJ1l3k4J6RM3j2j04L2P8p4n5J5J2J4n3k3P4
21158B8268k1m5N2J5k3%OJ5l4m0K9ml0J4J6Pj3j9Ll1qN6j3m2J8Qk1l5KN0k5m6M4J9
21352B8172j5Pk3j5noL2k5o4jrRN5k6j9N2m0p5QLj1Rj8nL1j3j9Rn3k8R5K7p1pnj1
21558B7945L5l5n0L0mk4Lj9%qm6j9TK1O5m5p4Rk1j8J9l3j7po3j0M2j1k7nJ0J3j7
21746B7620l1LK1k5m3J9K4l3j1J1PL8jm9OM2J0k4m0j6J5K8K6l6m2O4O1o4p4QK2nT
21935B7526rj3Lk9m5K5L4l6m2jN0J2j02l1P3l8l2P9k4n7M0j6k9K9l8m0J8j0lk1q8
22112B7185j4N4j3k3pm1j1J0n3o0QL5L4mp5n0L1J8l1n6m4L8K9r2l7P5m0j00K9J1q9
22289B6717l1K4K0J2q4m6J09l8j51O2lj66M1Q1p9m0l4k4K3q2k9K8j48n7Q5p4m1N5
22449B6130q0n3L7n2p7j9J2mq3j15l7L9j5p8pj2p6Jk5r6jk6q3j3o9r4j0k3%j0j08
22626B4953p4k8n0m9o9j9K6p1j07o4n0l1j8Ko8j68o1j1j03n0j9n0qn4j10r8j17n9
22786B3375Ll3q3j19q0r4j40pk7j39Jl3j78o7n5j24r6p0J2o5k15n4K1j14q3m4q1
22940B1411m9n2j16o5R5K8j33L3R6r0j6O6J4O3J4qR3N9N4Q5L9Q5J04O1Q0P7J05J19
23100B2252M4N4P7M8P7Q9R6J00K7qL7N7K2j4K4M2pk3j8QJ9j0L1jr8l6j0o6o5j33
23271B2615p3P1o0j49n0m7n9m2J4Oj93j44N5q2j01N8o8j43j9l8r3k4K4l7n4k5n7T
23431B1228p3m9J04K6j19%K9L2O5j07o7R2j3pL8k7M0L7k4QL3J15Q9j9O1Q2L9P4N1
23597B1738Q8J06M0R1R3J02J64J01J57J45j2J36J73M5K31K45P0Q1P2J37J93J21J59
23728B4476R0K1J79J74J48J46j9R1K24M7J10K12L7J9J18J02J3k6J18J63K5N5Q8k4
23865B6587MR9J01O3Rk0K3Q8O3m6k8Q9P3l0k6O3M8m3m7j4N0J10J2l9K6j9j7N0j6
24031B7213k5Mn7j3M7rk8jJ5J6rj0lkj2l3J9L7l9k7J1pJ3k3j07l2J03M5r2l9M3m2
24214B6956k8N6k9o1L7J7q2l9O7j4p9O1J2j27%N3l1n6p6K6N2q4mL7p6k1j5j7O0l3
24385B6562k2L1j13l7N9o3k0K3J0J9j41q8J33Kr0j4o0mQ0j5n9k4j7k6k2n2j02MQ9
24551B6043m2p4J5mk5l6n6o9q6JN5j5l0m9k1L9p8o2Q4l8j43n9k0rl0j4L1l1j9Rq9
24728B5178o7kk6m8p8k4Rm1N9Lk04k1J02j27p5Q1n9q8K7o8j32J2J5p0l1l5j0J5j08
24893B4187k7O6j09m7M0j55r6M6orn3n6J3n1p5r0q9K5m1m8R8n8j50n9p3L5J6j24
25053B3110kp0j52N9m7j71L9L1p7l5j8k6p7p1j2m3m4q3r5N9j9j46ll7j12j5p5p8L1
25219B1821m8r2k5k4j6%np3j52l7L3j34j22M4l0q4K5l6j15n4r8r1N0Mj05o9L3M8
25379B0648j26j12M9j30j41J03o7j54K3m0%K1j56p2l5q5N0m7j37qn9k7J3j46k8N7
25528A9394j62j01P4j3q2k3l2j03l0M3q3q4rr8n2J8p7j4K5j30r9K7l2l8M8m7j28J2
25687A8204M1m3l1r6j02J6n5q3K2lK7L1j02p1j8m7rm1p0j4n2q1j2J8nlk4j27o4R9
25859A7305o8j31R8j9j23P9J6o5M6m9j21k3Tn2m4K3Q5m0j24j4kq0pO6j6p2n1m4O
26024A6556L3k7n7m1K7O3o0r4N6Q6j14j59J48J51j70j5O7j76M5P5j87P6R0j26O7n0
26173A6264j29J55%j26M0K1J6o0m9R8j11p6J83o1p1J04o1L2O7j59m2L2l0R8M3j22
26322A6056n3N3K7L9P7j26j11K28M0j44J50Pj36J06J8n2jn5J12K4j62R1L2j42N4
26464A6132N2M5Q5q2K4J10j01m2R1L2L9O4K2l7kL5m5J4P4l9k1m3q1J26Q2o2J05M7
26624A6624r7R0R6p5J7R1n0q5L9J06Q1Mm0J8rl3J23Q8q0L6J62L1j14m1J01J9j3J11
26784A7200k2r1R1O4J1P4Qk4M9P4k8o6J55J13j41J1R3k4P7J2k0J78L4j15N7J02L
26938A7875p7kJ07J8M7J28J5J0L8K5P6K3jj5k8J28K6r0J40J07M7N6j89rK01k9J09
27093A8736J14q9J83O2k48RQ8R7J51r2pJ22j8R6K7j03J59J08n4J00M7k9J05O5p9n3
27241A9497J08J68K2j02l2J37J03j6J32J41o6J4P3J2Q4K0m4L1LN2J49P9m0q8Q4K06
27390B0727L6k3l0l1J49P2kJ77k8j61J78J91l0l6L1P1M6M1L7L5J62M2j33O4L6m9
27538B1572K03R1j9J20l5K1K16o0o1J26Q7N6q6r1J39O9N6J61m3l1J43M8P2O9p4N0
27687B2799J07j1N6Q3J0N3R6L3nQ0N2o1J03Q4k24K1L33M0j3J40l4J8J15m8N0J41
27835B4018k5M7J35ok7M0N5K9MR9J08k7O7J46r1j05J97J45n8R2J18p4L1J00%J07N6
27990B5181j02R4J53q1k5J96Q9j26rJ19o9pK31K5p6O0q0N6K53LJ4J15n9O1J37p0
28138B6083M2J53k3j0Q5M4M6O8k0r0j8J10R0k5r0qJ83J39o2l5J60J74m8j40P2J57
28287B7037j6QR2Lk0O3Q9P3o1l4M2k1Q0J62j4J9R1q8n7P7K6J2oO0J62n8j16J39J26
28452B7870M4N3m8K9Q1j11r8O1J96J02j27O0J13k61R2K50k02nJ51P7N2j14o9J47
28589B8343m0l5J52lm2M7Q1J28j02j24J00m3k0J98l3q5J49J20J6K2j22j8R4N3k2l5
28738B8779J3j2r1P9K59l7j34O0O6k6K4m6l6O2l1N1J59j31j30J40k5o6J72P9m6N5
28886B9187Kp4J7Q5K8p6J1Kq0J70L1l56J03K99m4m5N2l8rN2L6n3j42O4M12k35k20
29041B9179J39O7OK5J4L9o1q9P5J9j07N3J07L4k9q3J5J1n3J30Q7j67k1K18l6j2k2
29195B9538o1N0P7l1r5o7J0p1k3K55%n7Lm3L0K2j03j9P8N7Ro6j9k9n9J34J61j95
29355B9486j4J64j35j0J13l2k03j26K33R1Nq3m0J29m4j12J00N9m8jr9jJ76l8j28J20
29503B9562J72j06k8j7j2pKTpL7j0j14m2O2K7k9M0J12l5j55L6L4j6K3No%n5n7N
29675B9423N9k0j50J36K81j62j74J26M9j18L2J25K7j19j10O9R5j67M8K23p2j68J21
29806B9554L8o2Q0nj22o6L9J47J10j11n5q4K0J04qnk9l4O4MJ8P9j40j18J22n6J06
29960B9590J15q1j07L5K8Qj3r5j34r3K25O4rm9j6J30Q9j28q4J46J43o9p5mkr3PJ16
30120B9644n5p3M7K9Pn1l7J29J2m0L4m1n7M5n8p5P9L2m2Q6Q8n7n3j5Tm5JP6pn3
30292B9535K0ol3N9J2n1N1J0p1M3Tk4M2m8j00J17J14j03r1O2J3q0P1N1p8r0l9Q4J82
30457B9695j10k4N5p1K0N0j85j5J82k4rO4j85J09P9j28l3L9o7J30M0n3Pn1m6L4
30606B9503M4N2m2q7N0M6l6P5L8q9nK4k0j4m6o3M0J18L4l5k8R6m9j03Q1J7r0L6Jo0
30777B9488M7L8Kj1q7J5K44o5n2J33j51k9J8k8l2n9J4P7n2k5Q5m3L6P4j27R3P9j26
30937B9556m2R6J9o7n6K6O3p6q2J31N2k6j6l9J7M4m7q8J61J02j04p5L1n4j7R2q6
31091B9515J0R4l2k6N7Qo7l3J1j5JR1k9o6J07o3j92J12O8k4Q4j27%R1q4J14O4j70
31251B9499K7L3p3O5j%J24j08j12J20k6j07J5L9J08M5n6k6o8j7Q3K2qL4Ml8n7oP7
31417B9592L4p8r1J5J08Jj31lM2l9J6M1l6J0N4k9j9K7jJ6j8q0M0L6n0L0O1K1l4l0
31588B9505L0J5k4M3j7l6k1m1n5J3J0K2K0L8J7M0q8K6J04r0n3N2m0n1KRQ4Q1j00
31754B9495j20Q1J21l6p0J5L0Ml1k3M0Jq8k1Q8K1q9l6P7L2q2k1R7J7l7M5k1p7L2K3
31925B9467MO3l6q3J9QK5J13L1r4n4K6r
##END=

