##TITLE=Ethyleneglycol12
##JCAMP-DX=4.24
##BLOCK_ID=1
##DATATYPE=INFRARED SPECTRUM
##OWNER= 
##ORIGIN= 
##SOURCEREFERENCE=
##XUNITS=1/CM
##YUNITS=TRANSMITTANCE
##FIRSTX=3.998485E+002
##LASTX=3.999913E+003
##MINX=399.85
##MAXX=3999.91
##MINY= 20.49
##MAXY=108.13
##XFACTOR=1.249972778172271100E-001
##YFACTOR=3.378997686636063400E-003
##$CORRECTIONDATE=<06/05/26 11:06:47>, <System Administrator>, <Scan on IRSpirit, SNO: A22415600520>
<06/05/26 11:06:47>, <System Administrator>, <Measured with accessory: 1102 (S1102SC00485)>
<06/05/26 11:06:47>, <System Administrator>, <Atmosphere Correction, H2O=ON(Low=0, High=0), CO2=ON(Low=0, High=0), Threshold=1.0, Smoothing=ON>

##FIRSTY=20
##NPOINTS=5043
##XYDATA=(X++(Y..Y))
3198B4247P753j1320j0149R207L474k982Q12O38N286p38q458K679j215l384L73k423
3290A3800J963O423j546L446o95m344J127j475J489J1774j2874j025L232n012r27
3375A5356L986q67j666N98R84K32L445J248o052Q15M934l881o22J848m340J7L023
3473A9058j746L00o0l03l29k100K02J594q64P31N73p75O00j054j184M93p23J470K385
3581A8268j028j637j41J192J091j177l17J216p69r98o03m44l16L2K556O36j109
3678A6452j478p02J132J934r95j337L12j14O60N9m46M15j499j558J296L37J85P96
3781A5449j542N41J718r32j510m58M31R28m66j60J090o72l49J027p49j434L88N67
3884A3867P3m2N2O49l92j019P56P74o39q8q3l78L93o4k07L81m38j10K67r11r9L36
4009A3078o31R15M92p08r0m44o83N22K62R4o1p35k43j95j41M44r5L25M44q68j56
4129A1526L17l25O56J08o83N83r3pR88l03k83P80J84j38Q5J51M38j10m2N91k2k06
4255A4195L89K3l51K12L76r7m5q7l77M46L16p26L16O86n90J79O50m90o0J08o58M2
4381A4457N63n6j37M6m6n1L5j09k84L2L65P4l55o5M11l5l32J83p6j42M87j73m77L63
4518A4678J74q5qk94J53J20l76L27K56m24N3o2k46K86K4k51L06L78j80o86j16N92
4644A4619m7m33P7J87J70K01p9q4N0J0n5q6R2K94O8l53j63K57m7l04J90K35j91
4775A4608m1J16p8j34j3J02J20TO3p9L5J08j64j95O9K01J21n7o0J8j0L5m3j39P3J71
4923A4947L6RJ32P5k12j02J31r9J2J84j83PK54j40M6K47j67j02J19j0J8J51J52
5055A5505n9j42J59N2l12J3L69J21j99l6Q8j38%J61n8R8J40j10J54O4k13J57L1k06
5192A5639K08J60l9J2o7Q2R7n6J34P2o1J8n9J28J49k13M4J75j77O9L15o4j52K20
5329A6634L65L44j379M48K86J70j02j15K65Nl67K02L57r1J0R7j22k1J52N3q5J05K65
5460A7476L9m8n2j03J82J08l09m2L16J63o8p0J69R5j60J22K64k8o7q9j69N9K53
5592A8041J50q3j02J25O5j26N0J93K7q4l8k1N2K19J10q6R5J76n5m4J61J02j27n4K21
5735A8967J66J5qj31k4J58k1J9J84L5l8n3n2J29J73M4j00m6K25K9k26R4Q8r5J62
5877A9694J16n2Q5M0L7J45O1M1K0k3P8L9M0J85J4j05J31Q7j52K7K19Mq5N6O0Q4J04
6032B0950k7lQ6L1LpJ8O4J7M8P7N1J33Q9m9p5o1J00J25k9J03O1j26O9L3KK84mj66
6197B1797K09Q2p1J2j86O9L67o6j01K59R6j58j3J96K1k10O0J83o6J6J57N9K1K0
6334B2753Q7K6j60J08L02qm9j8k41p2K02N7j01o4P2J92R2j1K7RP0J22j30j61K62L22
6483B3688p4j40N4J21N1r4m6Q6J2P4P8k22j7L08m4j04K11K2n4Q8r3r4O9O0R8m7
6631B3991j49P9q2k87O8J33j13k2k9j90j12m6j27j42k6l6k25j54p9l85Tj38k52l37
6769B0955l69n01l70l71n86n27n39n68l78m91o76n45m12l34k72k31k18k75j29P8
6883A3241M9O9R6J36L86L67J33J86K30K24L83K93R2K00J37j20l9L8j40k26k88l51
7008A5096k83l63l84j22j31k20Jj1p1K17L08J71K54M71M86L25M05N41M56N26N92M30
7134A8694M37N09M61M92N58N01L36L17L63K15K76M53K37J65L07J34R0K76K20N8
7248B5099PJ42K11k4pK38J09k8N9K5K0J62K10O6r8k2R2L4N3K8j09m3L0J4J23O1j09
7403B6343J0O9l9N4P8o9J3Q9l8OK7j34qJ49l1m8Q1J3nJ0n3J2N1p7j14L7J53J4j39
7568B6454j4R4J0n0m0K0N8l6j03j2R0J4r1lK5p1LM8qJ9p9j25L5Pn8mm0qpj04j3j
7751B6010p1M2l1j55K1P3p5j01j2J6r7r6J1q6r6Qp8n4pj30r2n3r9j4p1j53j00j85
7911B4325j05K9k10k25j5j26j57j07k37j81j67l21j97j39k90k07j99l47k89k98l83
8031B0154l26l64m05l80m45m01m24n78m56m30n96m95m80n61m53n09n49m47n23m93
8145A0839m11m94m08l34m15l63l05l06k50k20k37k34j66j70j85n1n7j19Nj0m4O9
8271F134Q5J22J11Q7K69K15R8K69K05J53L98L48J78K46L31L47K93K86L45K91K98L87
8397A1496L53K78K97L87L33K38M07M09J93L00L57J80K23K95K68K53J20M6R2O3L2
8516A6620l0n3L4p5k04r9j20k51k46Tk69k58k82l28l13k81l83m46k93k06k56k79
8642A1736k16r5j09p4J20P8J02L67L00K09M37M59L67N12N99N05N47O48N37N05O57
8762A8191O33N53N65N36N67N81M68M52N09M62L74L59L64K69J74K19K79K53J67N9M7
8882B6081J58J86N8N5J98J13o9J3Q2ML1R7P6Ml7N2Tn8O5J56j1n4kOO4Jl3P8lq7R
9059B7285jK5R7n2r9N9O8jqn1q1j3P5N3mQj4o8kP5Om3L1K4l5J1n2j32L3Q6pK0n3n8
9253B7182R3m1j19Jq7n0P4k2%n4j52Q5N7j68k1Kp3L5o6j17J4l7n1j6q2q8Tl8Qj07
9425B6074o6Pj32q2K2r1j28q7m7j1r4q7Po9j22n1m3q0r0n9n0r6o2Jl7q4q8n4k4p5
9596B4202q0OJn3k5J8lm5j0O2O0M3M4QRN5N0M8O1N3R3R1NM4R8K9Q3J42j1k6J02O8
9779B5222O2Q8PK3O7K9M2J5j0L0j1J2N6o1m6M4l3k7L6j8m0k4l0m0o9m5j5m5n4m1
9950B5124k7m7o6K5rj39qL9j10mM8q8j1Qr5RM3n8k6M6O5J7k3M0K2rO5J7j1P5J4JJ11
10139B5038L7k7P8Q5J7J0K2N6N9Jk0J2L7K5k%J0j%J8J0l3l0J6j8l6mo6n1M5l7n3
10322B5198M2o0q3M8J6l9To7nJ1n0j7k0n4k7l8l0j8p4o3m1o0j9k2p5m9m3n5l0q3
10493B4154j27n1m0o1Km2j12m7m5q6m0Tl7j6o5m2J3l0l3j4n7n9jJ1l3k6K6OrK3qk6
10676B3088L3L8rJ3L0m1l6N0L6K8N4RK9N0j3L7N5j6K9j3n5O6K6m4J3k7j8Rr7n5J1
10853B3280m1m4o2n9l0r3o8n6j42L3M5m2jJ6j8k1pN9N2k2rN4K4p7KP5MTj4m4Q5K1
11036B2904r9L2pr8M1J5n7K3K7qj37r7J10J6o8L0n0p5M1j9j49o7O3M5o8L6O9j79
11196B2274J2L1r1O3L4o4K2q4J9R6j12k3J01n0k1Tl2J06mm5O0j5J7K1j13Q6J44k19
11355B2192N6J01N1K7J4o5k9Q3P4RJ7K3N5L5j13O1J05k8O9R4m9N0Q2k58R3J71R5
11510B3015K6J5M4qL2O1m2ON2j5K4m1k01J8K7o1m1p1j03Ok8r5L7J41n3k52K07O3k8
11675B2735K02J07MJ41L1Q1K60j27J64K80L8J32K05O4J63J26oJ74L4M7K79J34K5
11807B5293l4J48J34N2Q2P7K9P4M1Q3J18K4Q5P7m1J02J05J5J26N3L2J41N9O3M2J3
11955B6993R2k9l8K22O4o3O3M3J0PM2N3jL9J13Qo4j44J02J14r9M0J94pj47J18Q6j0
12115B7801m8Rp0m6J96J8JN2k70M9K09l3P1Q3j13M2N4m3O5LK2R4m9l7P9o3J0J06
12275B8192k9N6%q8J2L9j89J65O2p6r7J03L3k6k1M4Q2N1n3L5O1j46R8J07q7mL5j12
12435B8247J31Kq4Q2R2j97M1m08L98J45J1j7M1k9r4O9R5m4m1R0j7r7J06K1j5L4m2
12589B8520l7L7j20RJ68M3n1l9J6M3K8Kk1k2j2QL1Pk5j5pJ4K1l2NP3pn2Mqj6L7K1
12778B8623k2J8K2n1j4Q1Nn4K5J1m3j0rlL8J6mj8l1K5K1n4j3K4mL9J0j55P6L8m7
12955B8540K5N2m3m5n9kQ6l2q2K6Jp6O8N2n2n9L3O1m7o7K5j18j09J93K5n7L0Rqkn
13132B8363J4l1k4N7k3j66R1J1J8L8k2Rm0p0K4m30K01K89J3k9J7n3QO8Q%j1NJ7j19
13303B8233R2J00m6JP1k7km2j47K03k0j75J86P9p8O7J79k28J1N4M5on6J5P9%J2l
13463B8597j42j2J73RL9K1m2J9L5j0L5N5K9Jn3k1L1k06J11R4K4L3Q2p23O08K9K1O0
13623B8897l4j22J32Q0j22MQ4M7jk6k3K5Q3M2j00r8K3M2O5P9j07M1J5m5J3L5L2K
13783B9063j03J7J10pm8L4Qn1o6K0J03J9n4k1J37o6j34J19K5j12M4O5p5JL5J3M1r8
13943B9019o4J00J8j3m2m9J21L7r7J11O6k41J17Q2n4l9L3L7n0m0J12L4k9M9kj51
14092B9065L3R6Rk9j8J9J0m4n6L5M9K1j6m8RJ66K7m8j09l0J16O2o9m4O1m1j57J04
14252B9173J43m4n2O5j8l2O5j1p7J9L9n5n3Q9J6j36J01P7m5j7M2j0mj7m1K2J3J8j7
14417B9253n3Q5Tl6Ok6q2K1K6TP1n3n1k4n4R2O7n7M1K4l9K9p6o8O4J5K8j0p1J57
14589B9390J08k34RJ45l5k6j2j52l0J83K0p6MP2J5j5n5m5Q7K7q8L7J07j7o2nN5M8
14749B9455J7l9q8k8N9j30p3J97Q3j57j03N1R1j8TN1KK0L2r0p0P5R1KJP4p3j71L8
14914B9281mo3J72Mj73J12L1j05Q9J5n5K1K5J3n9lJ13l0n4K2j6Q6L8r4K1J3j5oq9
15080B9290P5L1j43J54Q7k01O5m5j10J15l9J08J84k94QK38k02r6No4J82o4j72J58
15217B9270m1r8Q4k2O9Qq1J55m4j57K0o8J30J33k71QJ95p8PjJ0J09k78p1J33J5J05
15371B9241n5j73K85k6j58K59j70k87L68R8l68nL47J27k48k0J71k11L9L07j71jK28
15503B9577k40k17k7QQ2j38L9K43j40l0R8k16R9J92j92lJ04mO4K6J58l2l37K70
15640B9384K96l77l8K21j48j33j30J39K78k06J98M61l83j99J51n45l62M81K85k44
15754B9129k59L45M21j73l9K22oq3o9K18J21n04m6K59q7L41m5q37J15O13j85k57j
15885B9193J23J91J06L76J03o32k84J52K6J80J62J24P9l24j34L20l0k80j10J65L66
16005B9872j40k21M69J22m22j73l37j14N56J01m2K65n81n85O60M78k79M1J49J14
16119B9933L31k49p41p7M12M61N8l96k53k55k18M78L52j13J0l02p4O32k4k34M87K3
16245C0241m28j14p9O0Q3J58L70k61k51O78o2q12J90K09l66K53M02j44k46j19J95
16365B9957J99k95q9L08J1j3O9k20j01J22k28l04K23L42j3q4L5j61k46oQ4N2l4k10
16502B9398R0L74j08k19K35O7k08m0k4M3J51j35j72K29J86j78j48o3p4J98K56k30
16628B9628k57J86J23j05j6n9r2J11M8j57%J29o0pK05p5l25P3K54j42j88J60J11
16759B9545m0K17J87k95k96P8J01k9r0j20J7J70J80mk52j21J17K8J35K14j40j81
16885B9421K6q6n6Q8K0n1m0P7M9k18m1K74R1J4M3j28L8O0k06K3O1j30J99J20k52j3
17033B9383K5O4L29k38l48L66L6k72J87l8qK85k72q9L87l13r4N70m31o15N41J88
17159B9643m69J84K31j59J80n7n46oN99L96l20o57R0P05O1l94k10L48N33o15l97Q29
17285B9969L63l38l21r4O9k83j7N92m50l86R93K35n46j88k50L16J70q73K24Q91
17399C0076m18m32J24N9K52J59j30l35j03M92k73m28P29n4p29L33J43j12K91j44j68
17519B9332n5LP24J4r74J56N77m8J23Q9k05j94j07L18J39m19K5K35k55k05K20L54
17645B9847m9m33o6J67O6R8n9o3K61j5l09np6k91K20K78l95k9M95j39j48L64j20
17776B9599k53K27r5l35L0K20N3j79m0J51j21n4L47J41j45mp3k24M1L09rk57L9M8
17913B9416j09J6J3R6J36k74k24J58N7j2J27Nq2mJ48Tj29k2K22j79l19J22J48j15
18050B9343l0K9j8J18L9j83N8K63n0k23j6J13O0k9lM4q2p1k8r7P9J10j49l2J56R0
18199B9491K1k37j85K39P6j71J41J8j83J89J31j30R4N4j84l3O1l5kM2mk0P5M2j57
18342B9333q5J19l0j05L7M0J9n9q7N3Q9J25O4j87o9J24l2J3M8j81j9M2J6O4J7o1
18490B9288n5j30K49J50j35n7m7j04K28n2k05K62N9j67P8m9n8R9m2o2k9OJ05q6r3
18633B9153Q4j06QJ64j9PN3n2J1j2l5Q2J1l7N0l0q4K5J19N0o5k6N9m1p9J6Nk8L7L5
18804B9355p9k6Q8j7n9M9K7j8p4TJ08P5l9K0j1n3L4J0j9KpK1j8p9M6J13j3j02kJ12
18976B9370J7r5o6K7Q5K3l3J3k6p6M1Q1k4n5RL3j0l4K4M4j4m5m2qJ2L8N1K8l4j0
19147B9324J5QLqk5J1Pjm1l7p8P2J17j07m0N8p1N7R5q2L3N1p3k5j02k8J69n9q9J88
19318B9342N6j61p2N9M6nO2n3j79Q1R1q5P3l1j63R8O0n4Q0N1l9j02n9O4p2k0J47
19473B9215n5k1N3j38Q1J34j47L0N7j32M1N7j7L4j14r0J25P9o6p8KLo3K5M3%N6m8
19632B9066j14L0N0J2j8k5M9m5m9J51M7r6k5m0K3O6m4kL6m2m7PR0Mj30J9O6l3L0
19798B9036n8j14R7M9j06K0Q1j7m2J7N6j6o4K8M4q5l9J20l4j98j3O8lM6J3K3Q7q2
19958B8914p8J22Lj25j1M8L8k2n4N5M3r6kJ41mj02M4M6n0K0Pp1M3J08l6j58n5J15
20118B8883N8k7j1m3PJ1n1J04M1j39R3P7j44O2L6j79M1J13q7n1P3J8j11k0J34M1j
20272B8928%j21J8J62m4j34mN2K1ml3p1P0J46j36j12J67J7r5LlR7J7j52J4M7K7P9
20432B8956j32k2K01j13j57N9m6L4J30n0j3P4j5k3Lj4J1N6m8j61M7J42o2NO2j04J6
20586B8836J01o2n0j6j5M9k3l7O9no5K8rq1N6J18n9q1N3jp5k1K9L9n3r5L4P7M0k
20758B8779r0l0O5nm7p1k9J26N9j03j7P1Po7l6O2J1n6M0J1j15k8P6ol9N4J4q4K3P2
20929B8647o2k3P8j8r4o7%P8K8p2pN4o9r4Q2Q1m7J8J2j08KP7n6k9P3km5K7lp3RN6
21112B8453m6n2L0M4K2l6m1L0ql8J2j2J3M6l1lL7m5j6K8l1mM3ol4j5mrKJ3rqj0l6
21306B8279j4J4J9Pl7jM0k5jL7k4nMl1Rj6m1Pk8J1Q2k3m6K0k2k1j2l9J4Ok3M4K4
21495B8208m3OK4m5m0L6J5m9J2L7m4j8L2j1m9o2k1L9jj0L1l5l9M2qp1LK5l4k1K1j3
21677B7917m7k8k9m9J0Q1J4p7l6NkJ7j0k0K8l8o5P2N8o0k5RJ0N9mq9pN0k2j5M9j8
21860B7738l7O4J8o5oJ4TJ5o3l2L5k2OK0q1KQ1m2n0K5jj3j1j3qm2l0K9J1j5jj6Q
22049B7532M7m3r7J7M6k8OJ3o4n4l8l7M0L5l9ML7m2o8j8k5l3M6N4l6m4k6l1J6j0p6
22226B7084k1M3J1o3n6O2L1j02mM2j14n7Q0K0j6m1q4K5Tj14k0N5q6n7N1j8m4Jk8
22392B6605m3k4Pj4r0k4M0o6m9kr6j5O7r6j10K1Mk1l7j10m9N6m1j05K7K5q5j9Pn4
22563B5709k4o4p6Jq4j05J4k3n2qn2m0jm3j00j32m5L4j2l2q4j04ql3o1k3j09q4j5
22729B4344r5m8nq1m0j9o0p5j16o3ro2o8o5m5o0j40m6l7j90q5J1o5q8j18k9pj64l8
22894B2437k0k61q0O7r2n2n7j08jq1j52J1O3n0r1J2N3k7k0j2L0R7m4k4J58L8J5J35
23054B1944L4N1J36N3L5O4J22J13m2P0K17Om0J15R2P9R3K9pj3M9J14N6J4Pm6m2
23208B3303J9K4j0RJ7n8q6o4o2l1l0m1k7p1m3or4n5j9j36q6k2n3rj00j26O7m8k01
23374B1961k0k3j21J8Nj21l9L1Nl9j11rJ08p3j36K1K3Pj9j15J7J28K7Kk5l1K2k4M1
23540B1510P3o7M4J42oJ2O5N4J08M7M0J48P7k2M2J33J10O6J57J48Q0J47Q7J15K75
23682B3585J20M4J29L3J42K46R5J37J14oJ44K30J69O8jJ81J74J1K01J56q8J08J67
23814B6159j5O1J10P9Q6K5O8J08J4QK6L2R9P9%J6Q5P1m8n5M7L9RK2J7Pl2OP3Pk0
23991B7183Jk2N4N5n5l0j2k4J2m6%J14J9m1Mk7k9j5oJ9j7l6j6L6Q1o0j24N1N3n5m4
24168B7023m1J5L6k2J4l9j08PK8L4M0j14n7O6q0k7R1m8n8K8ok2k7qj8q5MN4n6m2
24339B6582k4m3M5J3o1K0L2k0m3j01m9N1rn6Lj1n5oMn0oJ7o2n4j2jN3k1j13J2L4p5
24522B5994l8m0o3M6K4j04n9K4ojL6m5j03j2k4q3K0Oq6J0K0q8m5ro7n3J9qj22n8
24694B5085P4m0r7M1Qp7j4ko5q0m7m2m7K7L3q9p8O3N0j35j20O8l2j43K0n6j32R6K7
24859B4296j19j2n4k6N4q2m4n0j55Q3Q6j96q6J8o7l2LL1k4j26m3j3n8l9r4l6L7r0
25019B3162p1k5q3Njj22p1QRn9j23m7j2m8j2k3p2p0j3%p8j6J2j48k4R8j15q6K2p8
25191B1919o5q6j00j5q5pN5j82p4J09j20q7O6j23r8J07k2j96m0R2p5j59q0p8J5O3
25339B0734j11o9Q4p6j72J9N4j03q7j2p1k7K0j14j20n4r5j8O0qp0j07m2Lr6l2N6
25493A9546o8r3k9l9j7m1j22r3K6L7q6o7N6On6o7j16n0J3o7r4l6KTp4j31k5P3k2p9
25665A8289j1m7o9k2j0P8pj88j8Tj75N9Q5j17mJ5o9n2p4J1pp1O4l6j33jj00o4J12
25830A7420n3j28J7P8k6j76jP7j73l5J42k3o8p1K0L9j56N2J38j69l0M3q3N0q2j03
25979A6699M6j27Q1J88k30m5J47j57n8Q3jK7m2m6J0o9p7k3R1Q9j07p6K4pL1k0k9
26133A6402J4q0j0O9%j5q2J6P9j84p0J24k6L0l7j61Q8P5m4J1m7N5J7j21J65J17j74
26287A6211l0PNJ10l7r2K8O9No7N4Qj03J30L4j23J30j2n8J91j01j60J15mK6N9j19
26441A6276pO7Jj1j4P3Qj9R9o1j9J12j21K1J83o2kK1q3M6J1J9M8j14K4R5l3M8j6
26607A6590PJ08j22qJ91l7m3L8j2L2jN7N2j08L9J02lM9m4K0J63m2j1Q1m9M5K6o2P2
26773A7130L5lkm9R2O6qQ6n4j9J22k5J03J15j51M2Q3j16R1J25o9j2Q3O4k5NJ04O8
26933A7881J04kj75M7R2k6J27rr5J86Q9r3kL4P5M9L0P0m5M0J57m5l7P9L8P6j2l5
27093A8598J01k0k5J07oK8J12j8J4J16N1rL0O5jL4R0m3M4J44j10l9K23M2n2J04Q8
27247A9668M9K9p3q6M6J78J19l2qQ0Rm6Q0J22j4OR8K5L5J18J8q2NJ50Q6o4L3J24M4
27413B0717L7RK9J63K9j19Q1J56k1o1O7J36P4j7m8O1J44KJ0J23m3K6J81q9j8J48
27561B1777j40J9L24L9M6J02l2P9n2j22K08O6q8J59J1k4K31k1j51J08Q0L2R6L2L0
27704B2809J3nQ1M1kJ15J66J15J7k%j10L1K38L3n7P1K8J05P5j24Q1J76q4J1J31m6
27858B3907m0O4Q7L6o1O3K11O9l4N2K3p6L8J70O7M8J01oK0Tq3O2M4l6K51J58j72k4
28018B4959J07J01O1j12M0J46l7N8R7j1N2n8K2J98l7O9J88j53L0K18j36J7K48j3
28155B6054PR5q8j6J85k7j85J54K30j37rP8k00K18L49k26k5K76r5m3J30LJ57J48j11
28298B6922n3k5N7J75l6m9R1K0l9N7Q9Np7M8J74%o7M8L7K3L5MQ6Q5n8l8P1R2M3
28464B7720qM5O4o3o0N2Q3O0M2L2m0n6J21O0j52Q1J98mn1K7l1K7N2n8O4J40n6j6J56
28629B8429L3j00oK9J6R4J13j8n9K4TL0N6o0j2J02K7NP7l3p9L5J25J30r1p2J64
28784B8983K4m9J44p0r2J43o7o5J06q0J1J59j16KJ50q2oJ13J11n4k00J16J82r7k4
28926B9242J4j44J75K15j96r5K36J02j18j24k8R5J54L4j34J9J43j29j09J59Nn8L7
29058B9495N0j18l6J16J6j5K3j9R8Q2r9J4R1p3o6L7R0J5j33L0J76j84n5J48l1Q9P7
29212B9818j69m6R1K9o9p4J30O0m5lK2N0J1o3j4J9k4K6M6m4l6L1L7KL9R8q0j67K9
29378B9704R2J2n0r2p2R6J76jj33L1Q1l7L2%p8J9K4mO2RL0J49q0o7Nk0L6n4q5J9
29549B9804K0L0P0q3j10O5M5o4L5J46Mk00kP8k4p8L5R6m7q8O7N7n2J7j13j21L42J2
29709B9941j83kQ5o7RJ62K4j78nJ01l7j58N7J14m3j03R3N9j02R4J38r4j48MJ05K7
29857B9893o9N6J8k40K07K50k61j16J27K9m9jL0m2k4J94K79m68J02lj40J28J78k91
29995B9787M9Q8j16l4J69m9Jk5o7L8N5k3Jj3N3P6n0l7L4j04l7J32p1p7J31N0l5
30149B9926K8k6qj7o6N3J39l9j22J4R6p5j24Q0L7k7J32N4k7K4j01j15Q1K0m3k7j1
30303B9856R9N4j19n6N5Rk5N0O8oJ6j2j15M1O8p9K7Q5j64N2L2p5l8nJ14J71k16n8
30463B9829P5j3M1M2p6j1k8q5J08J27j82n7J42K4onm4l7R9nk3oq1m0O9L6j9l1o5N
30634B9783J05J09L6r2RQ0j05k14J79J45m7j37R6l3k8N0k3j6L8l4j9J7k0K5Nn7M8
30789B9900L4p3Q5J92q9m5J58j81l2P6J4k30r9R9R7P4%q5K8J7q4j7J16O9m5j07m3
30943B9829N4pk5N0L3K8n9p8K8O0K2l8q6P4J34q5j98K20J65j10n3L9j00q1K2PP9Q6
31103C0010p0k8P1L4m9n6L4J7p6L0L3l4P3J3j04mJ2j7J6k5M7J2q1Q8Ko8K4j3OJ7
31274B9914l8J10R1j27pQ0n9j6M0k9j2L2om0l4K3L7J4m0l0L8l4k3Q4K3j9kn5l3K0
31445B9902j1j8j6OL1J2K4l2q2N7N5k7Qk5L0N7j08lO0l0O0L5l1k5l9jPm7L1M3m4P
31628B9886K2%Qk9j0Ol8M5J02qM6m5j49J2K4l5L0J1j1K9M5J1o9k4O2K4Pl5q6L2O2
31805B9925o0j7O8m2j07R3J56j18j40J24J03o5n6L1K3o0%L7r1rJ05k9k2L7k1Qj4r
31965B9850J27L7q5kk2p6
##END=

