##TITLE=Ethyleneglycol13
##JCAMP-DX=4.24
##BLOCK_ID=1
##DATATYPE=INFRARED SPECTRUM
##OWNER= 
##ORIGIN= 
##SOURCEREFERENCE=
##XUNITS=1/CM
##YUNITS=TRANSMITTANCE
##FIRSTX=3.998485E+002
##LASTX=3.999913E+003
##MINX=399.85
##MAXX=3999.91
##MINY= 20.47
##MAXY=103.17
##XFACTOR=1.249972778172271100E-001
##YFACTOR=3.224162800380469800E-003
##$CORRECTIONDATE=<06/05/26 11:07:29>, <System Administrator>, <Scan on IRSpirit, SNO: A22415600520>
<06/05/26 11:07:29>, <System Administrator>, <Measured with accessory: 1102 (S1102SC00485)>
<06/05/26 11:07:29>, <System Administrator>, <Atmosphere Correction, H2O=ON(Low=0, High=0), CO2=ON(Low=0, High=0), Threshold=1.0, Smoothing=ON>

##FIRSTY=20
##NPOINTS=5043
##XYDATA=(X++(Y..Y))
3198A5086O192j869o513J144N380J807m877M110j246j416L543K437k237K319o078j229
3290A6553J1414k58j0174L68L088m47k124Q79K211l432K181K776m729j106n85J16
3381A6731K366o23J182K267l175J194O18l747K264K128l619J09K56o16J931j071
3473A8195j050K973j314k219P17o05o15R98M01n15j89P59K08p98q16p67L43J623
3575A7329l79j034K13P43L81n34m00P33K73n59j18l5q08p99J187J185n40q6j015j275
3690A4462Q66R04n77J78N1r91J19N86P7j6O2l82Q6P04j55j172J77l26l68R11k9
3810A5167n43L85j14J62M80r73m43R61r2r21n6Q79M02q15n99M27R1l25N12P32j22
3930A5195m16j86k89k21k8J3K32L3k54K04k23p82K33M01m64J75R5p62NK81q14j49
4055A2279Q92Rm60j37j27P1J20j15j04q3J07R6l29m8L27O5K36k26m29N97M59k57
4181A2943K49oP4J020K9o50J57Q5L48M62j32K46J99k67K21J9j75L66J52n5j03k64
4307A4918J74J64KL07j06k05K13p7J8P5l91J07M16k0n2j87n5L77o6k41J28q1j36J43
4444A5425k3j87p2O5P7j30j64J57K54k7j67MN3j25k3K42L1j96N8M4r4P2j50k02
4581A4922K75M2j66K78o4l10K28M0j77J60P9l0m6j39J13N8j30R8l4j15J89K4j11J19
4718A5303pj84q1L5J13J02p2n6J43J4j30J35J06j46K8J5j28R0O0o7Q3M2p7r9k2
4861A5200J31j2n2J84J10N2O2j32j16l8J7J53K5R8K29r0m9Kk40J47K73k34p4K07M8
5003A5901J5k8k2R3k0o8K3L7L2K6N9L4oN8k9l4J58M9j10MO3L1j7M1J43k8j37N0J48
5169A6466Nk10QL18m3q0K50p7r7K63j7RK80j37k07J80J02LP1r2TJ70K9j62K25K05
5318A7370k31N6K71j13j78J37m4K53O1j37K07P6j36Q3Kq5N3O3R9j6n6J87Q4o7N3
5460A7992k1M6J81o1n5P7j37k1K68M3j49R9K51N0o3M5N4k5j8J3P6J11M6O4O9J2P2
5615A9019Rj00R3P4j30J07J94j19m9K18J16n4RQ5L7J15J53j62k13J04J53J44J85
5746A9988m4j41qJ20J42k7j1J37j9j6O5k4J85J39k38N9L06o8q8J55P1o0J2R1M8K8
5895B0802m9q9J91K16r6l2P4N8J03n1Q9K82j12p1J84r8N6K48j44q3J02j5J26J10m5
6037B1756J08N2j42PK04J17n3K2Q7k4P7J64K4N8Q7j4J0j8j08p6J08K63J6j30K34
6180B2829J44k94J7L98Q7j71q5o8L9K01L0q1J74J57j45n4J96R5j22q5J10J54P4M3
6317B3643J2J4N2kp9k4J48J97M9k9l1p4n0K7J01j6j39J42J87r7J58J95k65J7L45j16
6466B4365k28K06L67J7k62M6K58j3q5RO5J67M8j24q8K4R1k6J6K41L5j56On0j30
6609B4799J7J22L3j93K3K81k10l07J62Mj06J33j07k54p6n3J5o6k70j34m3j70j82k79
6746B3139m03k54j46l10m61m29m03n14o03n88n40m38l99n63o40n10m94m68k40k03
6860A4533l76k30%n7K7K17J46J62K71K17K74K93P4J55M88M25J45P7N2Q0M4j99j18
6991A6700j1m74m90p2l59n26r1j02k29rJOJ70J96K41L18L96M61M16M96N43M22N29
7123A8532O20M88M73M80M53N27N86N32L64K87L59L32K91L67L63K28J63K17J60P9
7237B5901J93J72N0J52J46JM4J35J79J07n2mJ36J45J09J8m6kL4M5M0K7K3k5k6L7
7385B7539L1m0m4R5J21m1j0N0l6M9M7p8O6N6j18J1R9K1om5KM3l9k6K8M0k0j12L6J16
7557B7835r6p2O5on%m0N2N0p2n8K3K1lJp2j02L7K0m0J07K5j64l4K4n8l5l0lop3
7734B7291k8l7p5POpj9j04LM6j17m1j2j65m4L0j03l8j8j38o2K9m0j30j61q1k5q1r2
7900B5794j07j72q6l0j77j72n8j69k28j13j60k33j62j84k66k78k66j98k05l49l61
8019B1820l09l33l27m03m56l43m13n53m62m67n59m97n14n75n24n30n53n28n60n49
8134A2365m37m41n49m84l63l99m04l60l61l11k79k77k46k50j94j10j38j50r5l8m9
8254F430q1M3J12L3J08J72J23J66J87K09K91K65K25K56K81K89L02L15K54K93M61
8374A0734L68K61L86L57L30L90K92L01L74L39L53L14L31M09K74K09K78K76K68J53
8488A6997J07J81M6N4J55q4j45Lq2j09r4j66j77k83l24k42l27l34k82l84l38k84l97
8619A3491l77k70k04k39l02j47n0p0P1J11J14K94L62TM15M11M30N43O29N28N11
8739A6613P14O24M78O77P03N87N93N41O12O21M32N25N60L51M35TK30L41L25J20K77
8859B6794L28J10R8J16J24J49M6J24J92m9n4J16O1K9K6M9J35K9k7N3J1K9L6j7Q4
9002B8592K7q5M6L0j0J12kj14k1pL7R9j0j12l5J02L9p3M8L4j33lJ05k3rP2j3r3j1
9168B8589P1ml3K8lj7jp6p1J6M8L0l9n6NJ8Nl4r0l7mp6k2P1m9j25J7K7q4l2on3m7
9356B7966p6m4J3p9m8J6j10r3j9n7k0q6j21K1r7j62P4l7k57o9M1r3Tk2r3j21k2o5
9516B6247j45k1j5j25o6m9q7l4n4p6m4m0l1r1q5L5l8r0L9K0l0J2jK3L7J6O2L0jN6
9687B5454M4P1J03L9O2Q1L1P3P0K4P8TL8P8Q6L6L5P3O4M0M8L4J2J4K0K1qJP1K4o4
9865B6831l2k2l7J1Qm5n9m3k4l8n0m0l8k8j8k9o0p6l2l1n8Orj01m6MpJ0n1p1LJ1J8
10053B5857j6m2O4L7k6R4O1m9J2M2K6L3J5N5Q0L1J4M6P2K4j0N3O2M4M1k5j1N2J0
10219B6646J2L5LRj7TL2m1n4L2qk9j5q2m6Rl8j2Mn4l5Qkk3k4j3n5n8K7Lo5l8m4l5
10413B6015J3n3j00l3l4q0m9k0p2r2l8m0o3n4r1p6l7q5l1J2j09r8jp0q3kj4n3o7n4
10584B4441k7k5k6l0m0k5Lll7j1J9l0j6L3j2qL9pj9L7K3j3NK4L7M9M0K7L4J6J5L8
10767B4551jPL9l5k1N6K2om4l7M8l4r1Qn3o3j0j16n6rj58l7jj80K8Q0m2l3LJk4m6
10950B3746N5O8lJ3L4nk5L4J5j8M6qp7P7L2r4L4nq3M5Nn4L4M4j3k03j08J44K4o4
11121B3690J5p9o0O1rj02r2k4K7j8L3Kj90P2R7o5PK1l5Pq6J7P8o0nM2m7Ok9k8P9r
11304B3316lK7o1M6J8j22J23J10m17K19J53J2K8O7p1j6J32N7PL7k3P8J01j62N3J29
11453B3838l3O7O1n4J02P7l12J39J49Q5M3K2M3l3J5P1l5J6L5j7P9n0k57J00L0j29
11601B4052j9n8j93K1O9o9p2R3O7k66J74J04k1K04J00l5J41O0J03L05j74J23L30
11732B5039P0R7K28J08J33J02J2K33O2j6K27J62O7l4J63J51L6Q0P6QJ11P2L0J08P9
11875B7404P2N1j4Q3J18P0P9m8J14J75M1P1P4J9P3m1p4K11J12Pl0O2P7rL1O2j9M1
12035B8812N4j12Q2j06M5J37j08L3K17j8j90J41J22jn3Q1Lk38K34R6l1L6k38o9K15
12178B9144MQ4J37j11m1J16l0J6L2J6R7rp7P5K5o6N3J3M5Ln2KM4o8l3M2P2l4n5
12344B9444P3Qj31J33J45On5K7l9j10J81Q6q3RL7j13R9J1n3J03J79l23k5l03M15J11
12492B9832l4l2N0l9m3P3J5l4RL7k2m0P3P7J8j6j5l5k1j13M8J20L5k6LL3Pj3k0
12658B9927oTj0M3L5n3j5L6l4j0P4nm4L8J9l3k1j7lM2K0k4MJ0o0k5Q6J5n6L0K5j8
12841B9964j9p6pR2%JL0n1J7M0q4l4J1oO8q7j49J72K8j06M5O8p3n8o1j6J08J8m6K2
13012B9811j6j15R4N3p5JJ7l1J7l1l3j12k36K58J17j25K7N9n1pm8j6R6k0m4kk44
13166B9344J24J27q2J9L4j9%J0Q5m08K1J51Q3N8O8m9k1O8J5k3l8J9K6j54J29J25o7
13320B9645jQ1n0%p9k42L01K4j54J79J07j9L8K1j14K2M0R6j7j03KQ9N3L7p3j28j
13475B9754M0J33Q8Nn0jPL5P6J1j3J8l6pR6j97M6J47l5n9J26j188R61J25J04R8m9
13629C0235j72J51J09j41J4R7oj3L0m0K0J30J3j16k8j2K9R1k7j31J12QJ6K1k1O2N
13783C0436j32N7R2k8oK7%j2m1qL4ll0n5M0Rp9J15M2j06RN2p1j9O7O2M9r1o4M2L8
13960C0426O8l2q5O7m1o3J38J4k30J88J01o1k7N5nq7J9Q8j1mP9J1j10oN8K8jl4PJ3
14132C0563o7q1N7O3L3k5o3L6J24K3kq2l3R3oq2J6O3p4j28J35J23k5j8j5q5N3O0
14292C0656j9j1LK3m1j24J14N4k55K04J55j11p5P9J8J5jo3m8j7L0L4J5N4%qP7mo3
14457C0691pkJ9j4p8K8kj9Q6jn4O8J9m3j1n4K2N4o4K7O2n5N2N8j68j2J03QRl6j00
14634C0586O4Q8j9j3K8L1m5o5K0M9L3k8p2P3J28q9p4J13J7n8Q2o0j21J5L4j56jJ57
14794C0717k2o2L0OL8K8j7L7%m3Rom7l1P9J05q3m4O1p6L0O5j63L0J29j58j4J18n9
14960C0657L4K3lO0n9m8R5Lo2O5N4j27n1J63Kq7M9m3j0M9r8N9N8j36P3M8r5M8j36
15126C0585o4J58l1P6M5k31J73J39k29l1k4%J39j48OJ59j71O2J02k03J01L5k07J55
15263C0596J27q5j6o0N3O1j93p4J53J09%m0L8l8j39pl8J11J03k21N7K87k26o2K95
15405C0791j83l28J81K20j66j08J85K3j30Q7J0j98kJ54Q6J18J39j24k68J4J58j08
15531C0551j43J11P4M9O5j40TJ33P6j63J3J31p8m3J20J44N0r6O8O7k84n6K58l9
15668C0728k19j41J95L34j31N2K67k19m5r8n54J68M61j82j53j85L1M09qN6K90j26
15794C0930j58k12p8L09j61j45K68l4J51M2n79R0M99k82j06L73j27j57M56K61k07
15914C1133n1j59l17J45K25L6P3k11j19K82Q3r9l2R0J18j73k6K07j03R3K7m84O9K70
16051C1077j60J52R1L4Q9n68o7O30k19l84O0K7L51J93m23j59J50K79K55r0l19l15
16177C0684J68N35j16k62J37k03j12M62k8l94M08L73o39N8R15l96p53K74N1k63
16291C0899J57L05L01p1k62oj26O3L72j18k16J38j5k36q9L25K53k64kK19j17Tp9r4
16428C1220p2j70J70L03k15j06N4k91n7K09o7j8J44K3M0J07q3n9J54k03k90K83P2
16559C1148k17K53M4k02Q7j31q1P4j47K91L07l13m6j4k26J53%j22J58j57r8K36m3
16691C0954NM0k38N2J19k20P9L33m9l06o8J78J36J80R6l67l79P8J73K1j21q3J68
16822C0781J11o5M3j0j76KJ82J30K0j41j66nm1o1J01j2r8J66J03j72j25M0J56O3p5
16965C0751R0Jj68J06J17l9J2j20k6J39q0j6O0KK34j22l64L31K17m31j15K47K50
17096C1076k4m20N7M51k88k92L67j16l37L42n0n20K71L38j57J94Om29o7L74N90q2
17222C1284p26K72M86n13m75l18N52J438p19r68N31K73N7j13l10J47k05L0O68l78
17336C1013j41M99l94j14J13l41L88M8n22M14J75j78K20k87q1L87j72k38r7J69K88
17456C1149p18k46R89On07J01j99M0M82j38m38O9L87J49k26m15j36N45L51l38K88
17576C1195K74p38m6O71j61l42L4N0O6j56K8L22j79k39L4k43M7L54j1k7J51j22j40
17707C0822M1j92k11L59K19m07P3L89j94n6J93j28k9rj54O8qo2K8j91l1J31j1J87
17845C0827J46j14P9L7j94p6P0K20J9l32rK03k2q6m5J14K0l43l9K83L6n5j7n0L
17987C0675J3J48P7j58J9J15j23p9KK6P2n3j1Q6m1N5R2j23J3J02j12m6J11lq5L8K6
18142C0836j53J2J35j46l9K31q8k12J38K16n9k43m8J58N5l7j7r4o3Q8J05K8j7jm6
18284C0739n9N5K2n0N9J9n5Q2L2j19k6P8j7j00mQ8J1o1kOL8J19k6j79KP7l7J8J0
18450C0720j24K8L3k9L4K8p5nk0R1J2j00J04Qj33J26l5j29K25K8j28Q6q4n3Q7j08
18599C0587%J7k6J69j08k00K51nj83J73N1l3J08o7q9k0o3R3Q8o6J9P5p3p9J41Q5j81
18753C0664J2J77j42r7J43k0q8M8L5p2J3Q7o0q6M0OJ2Op5O0K6r6Q8L9j04L9K8j9
18913C0664L1l2L3J3j37M0J45l3r0j4N7K4m3kK4K1L7j7k9pk7K4L7j2Pj7TL8pjL5
19090C0745k7l5Nj4J8rl9Q2k0l0QK2J1NLopk0jj0m9O8R0j23q9P8j5L4J36p7p5R2l6
19278C0715j18o9qJ17L6nJ07p5j97J8N6rM2L7o7n5R3K6q6L2k3p2R7K9JO2q7j9Jj79
19450C0400PP2k6R5j3m3O9r4L8J23j33O3R0k05K2J05o1L0p0o0J68K4j02j1l3m4
19598C0411l7J7O7nK0Tj13j5J14mq2J0K4j14j5J98J6j24M5k9j01Q5P9o5l5K7k9n3
19758C0312O0M5m7L9J2j01jK8l4K1J9k3kmlM0O1j2o0J3j2p0RK7J4l2j24K2J24m1k5
19935C0255N5l6m5LO0O6o0l8M0l1J1L4o9J7P6m5pR3J5n7k5J5jl6LM6j3k5J8m1o1
20112C0217J0K6N4No7Q0M9j19P4Q9j54MR9p0ON2q1m6L0l2j07j6R5J5k9rJ3J32Qj67
20284C0161O8J52p6j31n7O8R5l6k8j8oJ00l9r0R8J0n2N6K1M1qj39k3L1L2J21l6j15
20444C0200O2j1j07M0P0qMj8n4J4N0K1L0o2j03Q0K0j30R3J37p6j8K7m9K6M9k9l7
20604C0221j5JJ2J0LL8K9r3n1M9r0m1J42Jp7K1Mj7m6j1N8n6l8P6L1M6o4j80Q2R9
20775C0144j05KJ1j0R5m9o6R0k5o5%j8R4O3j32k2O5r1k9J10k9q8P0M3q6jN5m8n8J8
20946B9938J7n8n5N6P2l0o4JM2n9j02O0O7p0J7Q6l0m3Oj5KK7j4qM6k7j03L8R3p8
21118B9812r2N3O2k6m1QNk3J4K1pKoj0Kj4j2lqpoK8K9k3oj0n5mL4K3Qm9k6J1l8LK1
21329B9670m8KK4k6K0K8plk6j1J7l1l4lRL4J5k5j5lk1l3rmj2K2kk7M2Rm6J1l2n4
21523B9431N8J5m4L6%m9Rjj1%m8k2K3j9j4Nl5j8Kj1J8km0qmj0k0o2oL4n5l0L1k1J
21723B9133K2k7j3j0j3K9qm1KJ8J3j2k8JJ3K7j1o8J3M5l4JL2j4J4K2j4k9k6L0L5m7
21906B9055m3NJ3J2ql1l0jK0j5j0Ml3%Rl7lm1m9R0J9r2J9Kk4Q0k5r6L1Jn6K0Lm4
22100B8745k0l1k6K2J1j9Jj3m1j6k2l6J0Mj3J9k4n1J1pm8l2k7J5J6p3l7M9j4l9J2
22277B8326l2o3JK0ql2o2l4L1j3p6j5Ln0r%o6k3J7j6k1o0l8J8q5p7L9m5n1L1o0l2
22460B7518K5r9p0Mk8J6m9j34J2L0j08p2J4mj8j3o9q6j0l4o5J1p2j26Pm1q0L6l6r0
22631B6369j8o1q3n0k9j9q4p4l8q6nJ0r5j2k5j46o3l7p4j7m3o7l3o7q8p4p3o0l0
22797B4828k6j00j15p8j06l2k0j61q9j5j07o4n9j07m5q1q9m0j15j19o1m5m8j22q3
22940B2901Lj02j11KJ4k1p2m4K6PJ1KK1R0LrQ3J0O0J46K4M6J19P4Q7N7P3J35K9TJ25
23117B3818N6M3J07J04O3OL5P7M9N4qk7J13N2j12l1P1L7j3j9j4n9m5j0o6o3m6n2
23277B4120km6q4m7j09r4m1o5j0q2j41M0n5j84M3Mj72l8k0j02j8no3l4k5n7m5l6
23437B2632m3oQk3m3l4L8K3r0mQ1lpn3n9J20Q1l5L2J3K2P7nL6J32P5M1N8Q9R4K4L7
23620B3308J29J54O8L6J78J54K6J54J49O5K31J77N6J67J01O7J98J39J16J52O2R5
23745B5982K14J72O7P9J48R4P9J80J17M3J04J02P1M3M9J38R4K6Q9L4kQ1O0N5N8j7
23894B8160L2J09P2L3j3m0lM3M6j4NN4rkL4qK2k3q9O2R5m0m6k1j9j6k5O5R0l3p8l3
24077B8410J4J2j4rm0%P3l1m5N1k7m2km2Kl9r5N5O0m4KJ0k8l7j7L2l2n9L2j0n7j1
24259B8072j6j7l0oL5o5n8M7l5m7L7j7m9k6j8nl2l4j9k9OK3K1l5j13NL4j20%R7o3
24436B7543m1j6j00J8N6j04j01J2M3K0k9p9k6P7lj20q8n4J5Q1n0j07J1L8Jo1j01
24591B6835m1l9n6kJj6l0n9l7oJ2l8j07ML8j10o1L9l6o0k0Qnj02TlJ2k6o5p0l0JL7
24779B5866Rq7l6L6q8j27%k4p9j0q9j10Q1J0r6L2p6j37L9l1o4kj00K7M3k15m1O9
24939B4800j54k7Q4o4m2l9j11n1Jl1r4l6O0m3j07o5o2Ol5j27kpj01op6j42O6J9j81
25105B3433l8J4j04J8Qj40L7K7j90lO7j43p8j6l8j4j23q6j9r3N0rk22MO0j09J2%
25265B2305j04m0p6j05m0Mj9r6l6j8j09l9q0j27M7L3l3o8j54K2J6j62rn2o3J18j63
25419B0952j49J42j65j32J51j02j57l7l4N1r1j41J1n4OK9j39NO7j43j24NK1r5j47
25562A9730J0K5o2m9m7Rj3j21j02q2K6O5j22n1Kj28M5L2j48RNp5mq2k0M0r4j8j3
25727A8767j26m7K2O2oj39o8l8j7L6q3l1L0r1ml1r8P6l9j15M0r5p7N1n5K3J9r2M3
25893A7917k0j32K9O4j6p3q3oj8QQ3k8j12n0Om5j10K6N3j04mP0m6n6l9Mkm2N2m1r3
26070A7192J06j8j25O4L6l2j8K0N3j48o5J56r1l3J14j63l3J07n6N8p7j82J43R0n1
26213A7047Po8K5M5p8J5pLP0o1K9N4j33L6Q4j30k6R9J2n2J3N7k8K5K6j12Q4J16j40
26379A7012JN4p0O7O0k6l4o2P2K8p5P3Nj5O9j05L1J31j12L2Q7j24K8P1k3M6J7J9
26539A7257Nk8R0K4m8L2l3J6N7p5j2L4J2O0ML1L4m8Q0K1q3J16M3r2M9K5NM2k4N3
26710A7647Q3OK5kL6J01Lo8l5O9J12j2l8J4M2Q5j5l9O7K8P5Q0q3J2R9J8O0j3j00J4
26881A8271O1M4K7N0J01Mj3O2K1L0lk1P9LM5J29q4L0K30m8j20M1M2Q4Q6L9nm7M6
27047A9184Q9J09J06p8j1Q9m8Q3N6p9J78K6j74J46O9o0P9n1R3K18n9J9P8n8Q4M3N
27201B0136J76K0r5N3J12P7k6KJ16L2lJ3qR8O3m0N6Q3L1J7L8J01M1l4K6Q3J25O2n0
27367B1305KO7P3kl4J06L2o0J24P2M7J70q3j12J63R5M6K4m8J10J20L1L2j8R4P5m6
27521B2385R6J9%K04m8n8J75k1L8J39l3J35O5n0J47r9q9K68Oo8J51J6P5J12m6O8
27670B3587O4k4O2M0J0LO4J53m8l1K18O5K1J01o4N4R9j52L4K00j1L3J14LP5R5k3N9T
27835B4860r8P7K03n6LJ87j4q4L7P1J51M6k6J68J3j44J52J64k1P3O7LM6k2PJ19
27984B5982qo8J47J53n1kJ01K4J7Kj3R7J21P0J8o6QN1M6J41O6J1J08pl5Q5J4O4Q7
28149B7163q1N3J66J7k1l7lO0J5J04J12o7l6L8R2J08o4K1K45O6j07j9R1J15jL8J00
28304B8168o8RJ43PM9R6o7K7N2q6L3L2N0K00J6r4P6P0l8l7M6J36O3l7K5L2L0P1l
28469B9001rO0k5m0J13J45M5%J0p6p4J35J28j20LJ92O1r9j3M1L5J1l2K7Q4L7J9O3
28629B9722N0m4k2O0j6%J31K0lR4n9O6J28k60j6K28j3o8J00K6p0K5J97Q7j64JJ27
28784C0327K5J19L5k02mK8p8P2L2m3J01N3j19M8J65k0q4J20J34j12j2R2Kj6m4k7J7
28938C0609P0J15r9j84J93J35m9j6p8oJ57O4k8J2N5J38j58r0L9o6Q6J58j68n9J26
29081C0956%M6L1q5K7N5k1m1oJ7r8K6K13k7r7J06j18P3K85j98k46J49P6n6l4L7P1
29235C1141j3n4J9N4P8M6n7m0MQl4J8J11j8q1Oo0J9J44K6O1O8l51l2Q3K4J3lq4p0
29406C1026J63K47m1j41N3p3l9J37n1o5N1q5K0J09k4Q2Q1k86J21R6l3n1l2Oj1p7
29555C1183N7R1j13j08R3J11n5k1J65kk59O7J14n4%P9l5q0%J5l9Q4P8r5j80K22Lj24
29715C1197jP6l7rJ31O1j48l9J33J9k45O1J80r9j06J72qj28J08P6n0o9l8R6R0j14
29863C1309PL7j43L8P1J5J7M2j4o5j2P0n9l1J84j56p8J44Ro3Q2J59k02j58P8M6
30012C1327j44R6K8K0l4l1J15M4r5L8R6l8J4j8l7%q7L6J92j39j71Q6O5O8O2j10J5
30166C1398j3q4M7Q2k1o1k7M6l5k9J96O8k04M6O9m4OJ0m4n6j8K3m9k5R4L6lm6k9k0
30337C1313M9J7jK9Q7oj18P8Q3r7L7J06k12l1l9k6O4j7J8J18j66j8J16ok6N7p4j08
30497C1227L9N0N3J24o8k49J13R5kK5O7j09j50N6M6nl8OO6M9n8n3N8N3m3J5R9k5
30657C1441o2K6K9j38j7J51P0k49J40Jj35O7J22j8Qk2n7l2j3N6L4l4L8K8j31j4J92
30811C1481L3n6K86j78k38J06jk61L9R1K2J29l5j74J11P2l8on3P8O3m4l0M5M6j74
30960C1314q0J48J00j00m5K8J4K0n8k1R8L5j9j23l7J93qq9P4k2j31r4N7J15J00
31103C1469p4j0J03l1j42N2M8n1l4N5l0j2Q0rK5pj53P9R5j99J00J06j01P9m0j23J04
31257C1379L7p2J1MN2P3q5n0R9M0p3n0O6J10l2r9p3mO3K6JMJ2k6r7rP8M1Qn0j13
31434C1271l2O0N2J1k3kj0MM4m2l1R1k6q3L9J7K4L8j05lQ5k0jN2J1k9%J6o1m9P6
31611C1374Qk8Rk3l3j0pj3qQJ4J13j3K6j5j14K3L9n2j5l9j5J18N7r8p0K7M0K0K2j3
31788C1332l6K0TqK9rp9j0Q0J2r3K4J38m5j14N2L8l3J0j3j5j3l8O7Tn0J7L1n9j2
31960C1310K3L6O6m1o4K0l4
##END=

