##TITLE=PET measurement 13
##JCAMP-DX=4.24
##BLOCK_ID=1
##DATATYPE=INFRARED SPECTRUM
##OWNER= 
##ORIGIN= 
##SOURCEREFERENCE=
##XUNITS=1/CM
##YUNITS=TRANSMITTANCE
##FIRSTX=3.998485E+002
##LASTX=3.999913E+003
##MINX=399.85
##MAXX=3999.91
##MINY= 43.96
##MAXY=100.60
##XFACTOR=1.249972778172271100E-001
##YFACTOR=3.143844899707431200E-003
##$CORRECTIONDATE=<06/10/26 10:37:43>, <System Administrator>, <Scan on IRSpirit, SNO: A22415600520>
<06/10/26 10:37:43>, <System Administrator>, <Measured with accessory: 1102 (S1102SC00485)>
<06/10/26 10:37:43>, <System Administrator>, <Atmosphere Correction, H2O=ON(Low=0, High=0), CO2=ON(Low=0, High=0), Threshold=1.0, Smoothing=ON>

##FIRSTY=43
##NPOINTS=2522
##XYDATA=(X++(Y..Y))
3198B9536m966n224K874K989j971k98J040K57j270j544J799J308k040l21J096L90q81
3393B2774M87J876j310r87K287N3j375K78o3J04K88n09N91Q52k92o0l89l55L79M63
3621B5092K31k16o09K9q1p0L94j07j12K07q4M4Q7o9r5k9L79J0o67j78R0k6L03Q3
3895B4606j33j22k31K53L37m20TO6J01O6J72K47L20J92j16N5L01lj03K31K03P0P3
4158B5745q6k6n9q9M01J45k32K54K28k15R2K62RqJ00J12l7j0K14K1j61lJ10K26R6
4444B7089k21n8J46j8p0N7R7l4j18K6N4n3qM8l3j11m6K3k5P6R0r5j0K1q9K0k0p2
4764B6666L8p0o4j9j70J1J12j02L3R7p5j2L2K9K6q8m8mTRj54r4J9l06l33J64L86J97
5083B6276k4n1k5o2Kj6r4l0p3p5k1r0j6n4j40M3r3j84N3j34j49J11k92k45j0j61
5380B4446p3j67l25r1j43j46m6k32j58j83m43l07k83j81J47Q4Mr4k87l56l62k38
5632B0566k13l55k24k40l90l52n83p56q01j000p15n05m50K84O64Q67J170R69J024
5849A8960J125R50J096J220J170J118R33O89M87L05J93J66R8N9P3L2l5o4j9nj16j34
6100B8301p1j10j01o9r3p8p0r6j38Tp0j23k18j86j75j78k12l05k95k50j02J90L74
6363B5787M21K67J4n0k2%K5m5lP8k5j8O0RJ5K0%J4o0o4Nm6n1n6j15o4p9j42p0j4
6706B5791j6j2qLj0RJ0n0l1jj2Lo2q8n1j66k53k52l46m01m19m04k63p2K14L77L80
7014B3870M59M32K73K43K26J14P2N5J8jm8n6kjk6oM3P7J23K15K84K69K37K00R9M6
7311B7215O0J4k8k5n7o6l4n5o4rj7o0To1l5k1p3q4l9m4p7p1k7l5q7q2p8r2q9j31
7654B5688j38j05j40j30j15j51j09r0q7k2k3j0L1RK4J6j1J4j4k4j9q3o7m6r0q8j18
7962B4102j23j12k07k05j85k76k75l32m51m88o46p66o94m03K44O78R05J020O90L62
8191B2838K08Jo4p5j35p2j03j30m7j00p6k1l4J06J27P9J36P9J13J36LM2mj62j07
8476B2738j76k64k05k98k89k61l65l15l94m42l28m27l33k21k84p8q9j21M7q4K2J37
8728A7970m4J46K04J41L16K33L33M88K89L80M07K29K50M4j33o0j31J3J63J27L11
8968B1676L04K74M26L02K80L46J56J77K43J26J98K60K41L13L11L23L77L23K78K92
9196B7226K75K36J83J23J01P0N3M7Kj9q0j74j97k62k41j16r6jJ12Q5J22J43N9M6
9470B7697J4p8j05j30j73k07k15k08k54k40k17k63k35k56k85k41l00l05k75l20k72
9710B3132l20l84l44m42m39m03n07m43m62m91l62m22k87j44k16K1M8LK18R2J01K33
9962A8182O1J44J72P2J91P1M9J45m3O4K02J44L16K69K27L62K30K43K56N2R0L4p0
10224B1463M7l2J0J28K8J54TO4K85K54K66M62L90M44N14L95L87L57K90L24K87K47
10476B6918L00K48J68K00J74J59J78J06J28J58Q7J00L3m3k7j75k16k35l25j42o6
10716B7728MK40K89K26K37K02J30J10O6N7Kk2Oj09r9j60l94k10Tk50j12m1J35O0j05
11001B7780J86J40M5K25J25R1K55M2j14O6j02qL5m02q4l7m60k49k57m46n78o87
11253B5566k12J31L13R10Q23N95O50L44o9R9J90Q7k67l2k7l91j74k44k01R9l94l73
11504B7423R0p8k5NLJ40j40j31J00k34n6K32j75j10J97K34L05J94M0J22K10L12L08
11767B8966P7j9K85J28mK29J25q2J48J53l9M7Q7k28l3J68K1k46j46j78k91m14k83
12029B8471K44K76m26N68L54p8J17J80j51j32K02J08n75J68J58k87RJ6p3K15k11
12269B9153l17K73R7l46r7l05P8j69l53J52j84m61J01k73l39J23M7p94j00K11J59
12509B6656j75K22K95o5L3J84K27J81l64J13L63L08L18L15K39J14J40J00J1M6N9
12749B9320M2J2J3O1L6k2m3m7l2j23j28r5k11j9J28j88k26L8j6r3m94l42o8n55n15
13035B6433k19n43j11p6j022J95j72l14K23R1M47O36n2N95R10J028j720R81N19Q5
13263B7914J79J27pj97n7K63J8l93j17j40K38L6r38M05J48p64N44N35k330Q73lm80
13515B5854Ln59J19M06k408O49Q38l810J072J38j036l86l76l05m7k23K25J31oL10
13743B0589k08N16P61Q1L00O62L74M22M70N91Q55n11P47J138K36J90J007K03K96
13960B8719P58r2K95M36m48M31L18k04J56N3J04Q1k64K65J79l20K40J56k68L0J1
14200C0636O8O1l8P1n9L9J01j63R5J24r2N9j50J0J91j26O0R1k50J35N5j12J43p7m9
14486C0823P7j18J75N1k39J60o8o3K71k65m1L09j63j02Q2oJ13p8L9Q7j44K04N7l77
14760C0784K55J4j33J73j02J4J32j32J07Lj30J54q1k5J91j21o4J2K4J57j53k3J62
15023C1218j52O8P9j34R5o8pJ33k72J12J97k41N8J9m8J80j52J5J61j94J17Pj70
15285C1021K25j60o9K66l16K7K52j81P2o9q2L09j91r4K20k11L1M5j42K20o7j07J06
15548C1105j79J40M2j25K93k23j43K97j97J78J26l50L61j32k58M27l23P1L04m44
15777C0970L79J01l95L41l52j3L36l87K16N3l51M42j06k08L65l30L5K69k69K18k4
16017C1290q2M67l36q1K27l42L41M4l09L68l13m8L34l79K95O0l87N22j86j62L73o06
16268C1090J23L44m19K76o6k69L16k04J08K30m85P0R5j00K37j22pJ69k40J27N2
16508C1325k59J93On3J41j95J5L6j35J85q2p4K34j68j6J12j85J43J0j47K47p8q5J63
16782C1333k15M6J36j93N4j8m1J15j47R4J33j91J18j2j70J77m9j0J84j39Q4J18
17033C1407j22J69o7j19J20j83J69O7l68L03P1j93L21k64r7K83k61L03K01l50J61
17273C1551n16l9M18m47J48L68j67K01j22q9K72l18L7J80k59J77k7o3K11l34N4K07
17525C1443l02K07M3k12K74j68r7K43k42J01J84k61R6m4j71J30n7Q7Q6j86J42%j37
17787C1159J27j43o5J23n4J11l0j44J18n1NJ04j02R6j6j66J27m7m5J08j32O5P3
18050C1221j79R3K1j00J06m9j3N5j08P0J0r7Q7n6m0Q8p1J5Kq3P5k4j9J16p4k1q5J22
18370C1062j2j4J8P2lm1Qj9O7mn8P2n3m4P1o9Jkj29J05J15k6N0j2pL5o7L3%p9Q7
18724C1157l2p9P6q8l4J47L9k9qJ0ql9Nj0k8L8j9j2N1l2k6Ll0J9nk7J8oJ3L0k2p
19090C1065Qj4J2pL2K3n5L4J7m6M6j4m1L1k8L2M5n8K3Jl3N7l2j4N2o2K0N8n5Qok4
19455C1075N8oKK4n1nOj3J5rL6Qn4M1ln3K9pJ4K1m9L4J4l1M8l0k4K1o8M4O0o2K5j
19844C1109j9O5m6k3M5m3Lk8m0Q6j3l4N2k4K0or1M9L5k3K2m7MK4o1M9K7o8K4Kj9J9
20209C1050LM1k1m8M4k3jM3n9K0L5m8K6j0pM3o1QL3p6M2L0m1M3m1k2O6m3lK1l5N9
20575C1068no4K9j1LL4k3K2j5n1K3k0j3M5m%j7oM5m4k6P1nl3jQK2k8nL2l5mK0j2
20963C1000J9j7k3J9j9OJ2j8L4j2m2L4koK0l1LJ1j0L9nk4J6k6JL1k1J2K4j3Jj0NJ8
21352C1026j6NOj7QrnJ2qJ1j2j7M5ll0J8j0OJ3k7J4Lj4K6j9k2K2k0kJ6j9J0J5j3
21740C0993j1%J6k5k4L2j6j9K5j7KRl0K2J5j6J1k4NL5l3lJ6j8K3mk2K1qmRj6J5ll1
22140C0925NlJOk0J6Oj8Oj7qjk9L0No0PJ1rJ5l8j8J7l2LOl4J6kl6Mjj7j2pql2mO
22586C0679m4j8mk6ok9l7j5n6o2p5r9p0j18j64j55k18k26j60j30q4m6m9l1K0P5P6
22894B8928N1Q0M4j9lm1n5L3M9M7J03R8N3M2O5L9j2jk4l2J0o0o9%q8r1j6j01j00l7
23237B8893j10j27r2j18j27j46j76j65j57j61j13m1j3j2ML3M6O4J13J28J26J48J54
23500B8151J25J33J64J01N1O5Jl3j2j11j89j26p2p8l2N5N3M6J13J20J28J83J43
23762B8979J30J74J19J08J38J03J02Q4Q0J01L7N1Q1MM3O3%M6L2rM3L6J6kJN4j0j2
24082C0592P0k3j5N7k9J2L3l6L0jk2O5k1k5M4n3k1M0j8Mk1n5nj1j6k9n7k9n0m6j2
24436C0352l2J4np1rm0o6Rm1l3K1l8JK4k4J8j0k8K1j2K4O4L0L6pJ9R1j0j1O7JJ0L5
24813C0400JK8K1L0L9k1K7N0j2J9J7PL1l1qM0k4j3K1n%J4Qk2J0N4l7k2M7n3rO4n2
25191C0619j5L4l6Mjk0L9j6l7K1J2Jk7k4J0k3%J3l4mk5l6L2j4l2mm0lol2K9k8o7
25568C0290J3j4j8K5rk4m5j5L4l0l3j2n8k2k1n0ol0n5l3kK9o4m9Q0l8q8J4l7LL5o7
25933B9703J7N6k1L9J2k6M0L0L8K8j7L3J9j0L7L9M3J1MR8M2m2L6N0K1QJM1JRR2M
26299C0436m0K4OK2Nl3M0L5lKlP0N2k7L3%j9N1k8j5N8k2J2L1n5L1O3m7l3L6L9j6k2
26676C0683K8oLL8l3j8J5k5K6L8%K3j8j4L7JKQl0qJ9K4jj9K2j6j0N6m1l3O6k1pL8
27064C0827o3oM4rM7J5n8J0Nl2J7L6Kl3q%j6L9K4n2k3nj5j2MO6k5j00O1N0n5M2J6
27441C0793o3NK9N6Oq0M1L3q5P4R0r2j6N4k2K4O0l5k3P8L7m4j4K1J3pk3rK2M1j2
27795C0952m0N3K2o7K0Kl2P7k5p3P8j8k6J22j1o3K3j0L2j5r9O2N1p8j0L6J5RLK4m2
28149C0972jJ18n7j24Q6lp7M5l2j7J04Nn1L4%k6M3Q1j8j60k9J46N1j11j1N3j1lM1
28481C1048j0KJ34Q4k71j54J58R2k6LRlQrlJ0Q3J69j08l75P6K25O3p0q2K1R9n0j08
28812C1015K8L5J31J03l28m2L38q8l23J88K34r5k85K4J98m2M2M50k34r12N68K96
29063C1301l68P6J77j35J01O5j98J85K54k39RL6o27K73M99j66l79K27P0l4O4j5j3
29326C1163J30K66k90n26O02O55j475K70N61l49N3J63j46J44L33m51k3M9j01J47
29555C1175K9j29J20R6j27p8N2Q1K8J4N5j09j65N1R9M8m1kL4p6M7R9k14J9K86o1j80
29863C1151K97k46l05L64n6j2O05m44p28P04K01l49J20l37J08K52j15L2M6k48K25
30103C1265J25l64K15J80l03mJ12lOP2O4k11j7J88r2q1J03o8L0L5r4J55M8l15J82
30389C1228L98l71m51L99L70n08r4L19q5l5M30k88m87M62L68o67j20L65J04k58
30617C1079Q3J81j14m6J02M0Mj58q1J12M4q1k0J27L6l0L47J69j167M53J18o1K03n2
30891C1288k9J88m46K11N70p68n4N09k80j83L16R4p9k75J62L35l72k88M59J56l89
31131C1125l8P6R0J28N4j95m3J88k31j62J72j8O9P8j58J81R3k07O3j7j01J93l1j80
31405C1129J44J9l7P9j40o8J40J3p2O6P3j22o9J30K6j13J2J0nL1oj3j4K5M4q5j3
31714C1184O5k9J0J4k7M3Lj4K1k5J8rn3M3j4k9N4l6k0N0j9RK8j9j5
##END=

