##TITLE=PET measurement 16
##JCAMP-DX=4.24
##BLOCK_ID=1
##DATATYPE=INFRARED SPECTRUM
##OWNER= 
##ORIGIN= 
##SOURCEREFERENCE=
##XUNITS=1/CM
##YUNITS=TRANSMITTANCE
##FIRSTX=3.998485E+002
##LASTX=3.999913E+003
##MINX=399.85
##MAXX=3999.91
##MINY= 42.66
##MAXY=100.20
##XFACTOR=1.249972778172271100E-001
##YFACTOR=3.131361406778348900E-003
##$CORRECTIONDATE=<06/10/26 10:42:26>, <System Administrator>, <Scan on IRSpirit, SNO: A22415600520>
<06/10/26 10:42:26>, <System Administrator>, <Measured with accessory: 1102 (S1102SC00485)>
<06/10/26 10:42:26>, <System Administrator>, <Atmosphere Correction, H2O=ON(Low=0, High=0), CO2=ON(Low=0, High=0), Threshold=1.0, Smoothing=ON>

##FIRSTY=42
##NPOINTS=2522
##XYDATA=(X++(Y..Y))
3198B0888j91J60M197j480k215K843j292j991J156k060J065L095p4P9j56j850M55J075
3404B3704L17j03p83J94L12j92N97j6m76J48J2L08J28k22M96M1k76L42Q9J38K88
3644B5046r7J53l16n00L92l0m09L22J13k88PK2j25q6J79J92p0no0p8Qq9J11j29l84
3930B3879M28J85p05j29K15j21J43K39J66L75Q1n5M04L18j71q9K73K03o8L7O8l7
4181B5639j08j93J79L60M9K4J82J18L7j7O4J35L3P4R8M6Q5n8q5J05O8M6J1r1J01
4466B6902J39p3k0K2k3Pk0RK1l2j3l9j8np7N8J00o4l5J2k0ol2okn0l0p5l2L8j46j12
4832B6378Q7J3kJ9l4N1M0m9k3rk3p3k0Q0r3j55o0k90l17J63M05K15K3%k8j06p0
5141B6122q8n8O3p4j24J1q1p6m2j14Ko4j55m3j73m9J78m99k56R2j28j17Tl10k03j71
5438B3526j06m6j85j74k92m16k49l74j72K24P3K7j08l74l56l55k74k03l87k53j97
5677A9329l88l63n97q16p97j022q19m94m11K70O89Q78J220J074J029J112R99J128
5883B2021J265J214J130R72P04M65L03K17J89R0Q5J24l7p9K4k4o5q6j41j05q3r0
6134B8093p9r5q4Tj25j19q6r1j48j91j99k16k00k26k92k74Tj46J83M01M70L09lq4
6409B6440j5j0Ok4j6M7KJN6J6j1QM6L9o6n5op5o0o8j27m6p4j68p4jj3pMNk8j9Nl8
6797B5674j0K7j6k8n4p6p9j77k39k61l50l93m61m50k57o0K12L91L99M70M32K90K73
7060B5257K27J22R0L5JKn3k7j1o5kM1K4R8J50J93L01K99K40K00Q1L9Q2Qm8j4l4
7368B7236o8m6m3n0j2k0q0p6n2n1l5m2o4o7o3m9n7o2m2n8r2j00q1q3j50j53r9j39
7688B5302j48j13j32j19j07q7k9l7jM3%K3L3j6krj5k1p7n4o3j18p4j08j59j27j80
7997B3605j78j96l30k99l25m82n01o40q05p28m10K38P05R56J062O99L61K36jq7n4
8237B2826j43j14q4j00o5j30p3J7l6P7J35P5J39J23J11J28K4K6j1j44j29k04k54j87
8511B2007l18l23k69l79l16l79m77l37m22l93k45k69q8q3j33L4o2oJ24JJ50K02
8762A8019J45L11K86L70M49K87M10M27K44K37L0j29n7j25OJ50J31L43L49K74M15L31
9013B2903K88L37J77J82K43J49J97K46K47L28L15L24L94L41L00L19K63K17J87J27T
9253B8211P9L3O4nm6m8j79k25k36k55j46q2lJ10J07J17J41P0L5%p1j03j51j61
9528B7256j83k45k28k41k57k30k63k66k70k82k51l07l10k78l28k94l31l96l60m46
9756B1490m59m28n17m51m78n19l75m11l08j70k05K3N3J4K15J08J14K23P3J53J73R6
10007A8414J86N3N2J44l1Q8K03J48L25K67K31L71K46K52K53P2J00Rp6N8k4J7J25
10270B1483K4J46J55Q3K81K57K99M64L93M78N28M06M02L67L12L33K87K64L03K49J89
10510B7703K10J70J53J68J17J47J56Q8J11K9n5k5j79k29k45l25j55r0J5K59K98
10750B8321K53K47J88J44J15M9P5Qm1K0j08j26j64m01k22k16k54j07m1J34O8j13J88
11013B8017J48L9K42J43Q5K60L8j19Q9j04l1K4l99p8o2m83k31k86m84n59p13k40
11264B5296J50L38R48Q59O08O55L38m4J15J68Q6k50m1l2m24j99k22k00Q3l91l72
11504B7469R6p2m1J1TJ27j51j39R2k26m0K37j52r0J80K11L18K21K4J23K19K90L17
11767B9035J50l6K52J38K0K21J09o2J50J20m1O0N4j99K2J59j4k46j31j94l08m30l02
12029B8527K27K44l50O15L44r9J28J74j58j12J77P8n13J64J67k45j0j6q0K22k10
12269B9274l13K82O2m29J1k67L9j56l55J28j96m88P1k80l21R5Ro48j69J89J65j73
12521B6530K04L00j1J6J48K37J88l89J42L87L20L16L20K59J16J31R7jN3P0L2L8K7
12784B9530K6L2jn2n1m0j34j31j18k10NJ07k37k00O4qj22m98l18r4n69n10k48n15
13058B5708q3j72j010K65j89l40K10Q4M54O02J1O94R19R38j713J082N11P1J77J17
13286B8336Qk00r7K58Ml98m4j66J83M0r37L83J30p69N56N05k338R05l3m95L9n94
13538B5276Q9L98k472O64Q34l807J082J05j036l87m66l25Qk49K08J64k7L32j48N10
13766B0753P43Q1L36O84L64M42N11O03Q86m78P39J154K51J99J026K12L04P58p6L35
13995B9827M24m72M60L06k35J87O0J03Q2k84K72J85l33K54J51k82P8LM5Q2l7M4
14246C0920m7L2P3j40J18J14j28K0r7N4J80j48O2Q3k38J41L1r8J69r4l6J13j70J32
14520C1046Q0k25J41p1o7K66k35m8K73j57n7P3l3R8n6O0P7j62J97O2l62K56K4j25
14794C1055J71q9J8J11j33J25jj54J45n5k5J65r3m3k4K0J71j33k2J24j56Q1N2j38
15068C1172J12o6nJ48k53Q7J45k12J10jp8J87j12K0J11k08J19Pj38K14j65m1K48
15331C1401k71M1J35j70J70j36j14L23j90n2K06k16Q1qj69K51o4m1N4k93K13R7k01
15594C1047K73j82n8L22l27J62K12l76K63j45j07M98m16J87L88n77L48l0m35N48
15822C1595m20j04M85l73J11L1l06M90j11j91L52l81R3K52l16L32j45k75O03k18q2
16062C1422K62m44L90R6n43L94p1q2L68l80J49P1l30N37j19k53K53m52K26K43l98
16302C1339L56k09l20M48k35NK09m58J80J14j96L00n0j19J10j83J58O3k46J87m0
16542C1413p5J61j89N0N3k04J94l1j59J63j09K9J01j90J57K5j54K22r5p2J39k44Q8
16805C1273J32k21J25j7r1J60j54O4J53k46Q5M7r0K29j62r6K48j97Q9K52k44J21
17056C1460O1k26J69o4j0R9k57K18J39k31K08q8j2K40l61J59L60k47N5l95o0M04l40
17319C1281k2J97j45J53n4K3K82l30l9J98j13J95j06j47K09k31K9K08j98J25m1
17559C1474j20K95j89j06J90k12J19N7k67K47k9k13K33o9k7J56j58J2ko3J43j26o5
17822C1280R8j12O8L1r5J35j7n1N2o1J01Pj38N6p4J7J24j65N5R8j72O7J1r8J19k2
18119C1314l6J6q0J06J1r4J09q7j09J01l9kL5q2J4nlQ3k9Nj2J8oj1kQ2j6m9J8j2
18461C1238K2j5l0O8qk8J5m7K9k4j02J07R3k7L0j3k2om8L9om7P0j1k3K4r4J9R8Qp
18816C1302j5ML5o1j2L1n0K8Ml2M2l0k6Nj8M6pn6L0mj2M0j2j6J7k1J4rpN5j8m0J0
19193C1217LK4mj0J4l4J3K8l1J3j3MO5o1j2O9p5KP6n1ML0l8JJ0J4Ok1J2j3kK9k2K1
19581C1268J2m1L8k5n1N0j9KM9o4J0N9k6Rj9j6K9n1ON2l1RmnN5n6m6M5mJ3j0k7N1
19958C1262k2l6L4j7JTl1L8lj1L2m9j5J0l1N0Qm7K8j6j5J8k4K3Lk1K4l6PN2m0J1
20324C1188Qm9M1Nk0K8m4LL3m8jJ3L0L9p6J4O9p8LM4l2L4rm0Ml2M3M0m9L0pm6L0l7
20712C1131j3N6k3K0K1m2L9J0l6K4j2k6RPJ3k1oL0l9k3L8J3nj9JK1k2OJ7k3PlrL1
21101C1172j4k6QnJ5Nj6Pj3mJ6k0RJ6j9J9J3j4LoJ0Qj6J6Kk0J5kmjj9J6nk4L3Nj5
21523C1145J3rROk4J7jj0K5k7k4J3k1NJ0j3K4Pk1JjTk0rK3l4rN0k5j9L1j3jJ7mo
21935C1104j9J3K1k4PNj7K1j0j5K8qj5JkJ4k1k4J6k%pj9K3lj2Rl4JJ2m2K1%n1L2J3
22346C1016k6%l9oK1l3K%k6J7j7l0Kk3mlj9J0k8l0J0l1k1pl6j4k9l3j0o0p1o5r6
22723C0321q3j30j80j52k06k43j70j10q0n6l5k1qO5R5M0P1P9pl2m9l4L8M4O6J12Q2
23031B9417P0O1L9M3Kl6l3j0Ro5q6j6o4r5m7p5o9n6j31j38j21j39j18j28j72j67
23328B7875j58j50r9n8l1mMK6O1P9J12J43J41J27J59J81J36J21R4N6Q1L3m4o4j33
23614B8688j70j24q6n8j8L2O5O7J09J33J19J61J62J40J73J19R8J60J13Q6J07R0Q8
23877C0254M3L5Q6M0J8M0J5K7K0J1M9K4RJ4MM1J6j2K7j3J1M0m1J5N2k7K2K1l1K1l
24231C0828j8J8j6mJpK6l6o2ok4j9j6m6l4o0m4ml5lk3p0J4k1p6Mk3k4Jo5LL4l2L9
24619C0200K6m2NnOM9K5L5K1K3O8PoL5RL2K3jM1J8M1N5m0J8O9k0J2L8J5K9l0l3Nj4
25008C0714M1J6m8L3K4m1kJ4J1OKJ0k7LK0m5J4L1m7MTj8M3k4n1J6rjkl8J2Jk3J7
25396C0660j9k3Mk0j4l2k4K7k5l8J9l0n5KJ9j9m0J2K8k3Tl2l9J1Mk6l8n5l1k3k6J
25762C0132j6m3n1k8J9l7o0K1j8n0j6l7J8K8n0RL2j9J7NJ4M7J6M6M4J2M1j6qP6J8
26116C0146J5L3KQ0L9l4O9M0lN8j3jP3LK0O1k5k4N3L3l1j0K9nJK9K2N1K2nM8pl3J6
26504C0752qL4L0n3L9N1n2J7Tl5M2L5k7j9OJl8K9O8n9j3Q6j9l2K7QPk2nM7kLJ3l0
26893C0898J3kk3M9J2l5MJ6J8k2j8L6j7pL1n7j4M7j5M4L1q8KN2k2J1J0l5okpK0P
27270C0931j0Mj3k3Lk0j6M5k3o9L4J6k7N2K4k4J3mJ4K2l8J8K7n0K8N7n2qP0J9PJ4
27635C1021n7k0R0L7k4Oj4J4M3m2m4J2J7K5lJ0M9l2m1J3qK1j3m2O5J5l2P2j3p0M7
27990C1102L8J4l1q8O8P2j10l4P8j6k4P4M8r9l7J27k6j38R4Q6q0l4mK1M9k6TJ4k4
28321C1088QO8P2l4j62OJ64K5j00NJ2j4Pj6j7O0J27L9k41r9J63R3l9k6MRLk4j1J1
28664C1181R4J99p2l86P2K25K5p3o8l6J09Jj70K5J19J27P2l07n6L43n6l31J84K24
28938C1445j24k76K7J95k3M4M18k85q36N83K86l59J03J80j90O0P8k03J73L29j49q6
29189C1390m4n86K92M96j42l36K03J3l5L2j0OO8J73j95l40L75O40j122J97L25k02
29440C1198J5J44j50J69K90m40J9M2j23J69L9j33J30R8j48r3N4Q7L1K3N7j20j70
29703C1188M1J04O6m4JN3j06K4J19k14L6L12q3j83L44k90k91L65r1lO18n34o52P44
29977C1524J39l72K00l08N1K81j12%M2k35K23J57l97J97J98l22%J23k5%J00N1k60
30240C1255JK22r4r2J11n7L5J5j21J70O4l33J93L95l98m44M34L79n11j13L13p7m0
30503C1307M12l03n00N18L83p11j15M27J33l49J08K10j75n7J25P8O1k01j27J44M8
30743C1416j60m8J94M1m5M43P4j243N10J28q0L12p4o7K12n98L03O75r40kO25l89
30994C1287j90L53J22o8l73J77M96n13l39N51J99m04q7P4R8J38N6j68qJ32k83r2J85
31257C1343n6O4R0j49J62P7k24Q6j1j14K02k9j98J49M3l9M6j26n0J13Rn6M1Q1q8
31543C1366q4R9K7q2J6kmK5oJ7NmJ9o1%L9l8K0jk5O9pl3K3j4L3j5p8N1K1j7L7n7
31920C1339k0N4k2J7K0l4N
##END=

