##TITLE=PET measurement 14
##JCAMP-DX=4.24
##BLOCK_ID=1
##DATATYPE=INFRARED SPECTRUM
##OWNER= 
##ORIGIN= 
##SOURCEREFERENCE=
##XUNITS=1/CM
##YUNITS=TRANSMITTANCE
##FIRSTX=3.998485E+002
##LASTX=3.999913E+003
##MINX=399.85
##MAXX=3999.91
##MINY= 42.93
##MAXY=100.70
##XFACTOR=1.249972778172271100E-001
##YFACTOR=3.146968265565170100E-003
##$CORRECTIONDATE=<06/10/26 10:39:24>, <System Administrator>, <Scan on IRSpirit, SNO: A22415600520>
<06/10/26 10:39:24>, <System Administrator>, <Measured with accessory: 1102 (S1102SC00485)>
<06/10/26 10:39:24>, <System Administrator>, <Atmosphere Correction, H2O=ON(Low=0, High=0), CO2=ON(Low=0, High=0), Threshold=1.0, Smoothing=ON>

##FIRSTY=42
##NPOINTS=2522
##XYDATA=(X++(Y..Y))
3198B3689K531m480K323K913m391J608N43l403J839R06k432J345L656l151r10k43Q5
3393B2428K045J026j502p11O41m7n91k53P90O12n35k15M33k02K94J29n27M47M86M4
3621B4792M38j04n73m2j36k1J41n6J74k6j24M3k45K19J69l87J40R9j78L06j04l28
3872B4197K05Q4Lk33k88K22k39l81K75Q5k1J56J5L87L14j45K28L64N6o0j35J43L07
4135B5539J0R5M8j12L3j6Q0J49j13Q0K32q2L5K90J71j5m1J29J17k1Q2Pp6J22P2
4421B6815JP1q4p0J42O6j17m0J49J7j63J02J67r6l8L5q5j02j23RJ42k8p7N3j4j08
4718B6624n4PJ5rr6j29j0L4n0OM5l6j8mk3L8L4k0%ko9n4O4J3j50p8n3k77k65J17L71
5072B5971K25K2j7o2o5j2o3n6p9j01O2p8j82Q8p9j60J08j86k06O9k15o0K12n43
5346B4593j78R2j29j03k17l00q1k03j22rk17j91l01m14k06k96q3J15n0J36q1m75l26
5609B0954k92k57j84l85k46k42m64l21n44q24p85j011p86m80m91K55P58Q70J180
5826A6705J076J030J078R60J120J244J197J156R36O60N26L24J51K09J42J8N2Lm1
6043B8546kk0m0j03j49o5q6j66q4l5j09q3k6j50j80m2j23k48j68j70k35k69k92k42T
6329B5217j32J68L62M53L25L5n1m7n0L5pj8O6k7k3R8J8l3L0J7k2m8l0k5o2m1o6
6637B6142r6l5q0j25o8o7l4J0pMj0pJ8k6Tj6k7J7l9r7m3j38k86k87l22m28m63l50
6957B3114k36j10K23L77L50M66M42K91K52J97J45J03NK1K6p1m1j2m3J5L0L1O7J00
7231B5742K32L26K62K27K04J07O1L7j4j8j2l9o4n0n2n3J1j8j04m7l0p7k7n0r5l6m9
7540B6374p8m3m5n5o4p9q3j04r7j00j42j31j18j35j46j42r7j00j02k5qj1J5J2M1
7825B4537L2j7Mj5l5j3o6q4o2q6p9j21j62j21j67j90j89k93l07l39m68m96o21p90
8099A9852p23l83K34O89R51J017O98L96J98k6p1p5j32p5j05j26m0r9r4mj4O1J14J30
8374B2373J56P2J02J44J7J3jj30j56k15k27j90l17Tk67l36l29m29m37l26m44l54
8625A8402k55k81m2r7j31Q3r1j9J47l3J41K16J27L24K84L25M62L10L90M20K37K42
8876B1161O0j60q7q3J2J25J44L19L16K89M00L16L08L26J73J89K26J61K25K31K27
9116B4878L30L25L15L77L45K84L10K96K05J59J53J22N9N2P0ln4p5j58k04k67k59j20
9379B7140o8nR9J14J34J26M9L8J0o7r6j41j80k09k25j95k38k68k33k53k61k71k68
9642B4732k52l12k83k69l40k92l28l91l49m48m54m16n12m46m65n00l70m13k92j66
9870A7434k16K1M4J0K13R4J14K21O6J81J79M6J80P8M2J32k4R0K03J47L18K66K45
10133B0084L76K27K38K55O5R7J9p2N4l7J1J31J7J46J66P3K82K68K78M49M04M79N16
10396B4526L93M05L65K81L26K93K40L05K71J71K08J87J34J58J26J42J67R0Q8L4
10624B8910m2k8j70k29k49l17j50p9J3K41K95K44K42K01J33J15P1N1j4k1K0j06j07
10887B9024j61m01k22k16k39j01n4J28P2j06J83J41L7K43J35P9K70M1j45J01q5m7
11138B8677K7l85r6l9m62k60k69m61n81o92k19J36L34R35Q26N96O67L39o2J22J71
11378B9304P8k48m3k2l94k08k41j97Q2l50l75O3o7l0oK0J36j55j28R4k27m7K18j68
11652B7089r7J76K35L14J91M8J48K10K84L19J29o4K69J45nK33J37q3J46J45l9O3
11904B9993P0k33jJ59nk27j43j90k79m34l16K60L28m52N83L55r2J25J84j47j39J85
12155B9584J40n47J16J53k49kJ4o1K18k19l28K77R2l53j9l13K7j77l49J51j71m90
12406B7494O9k81l21J14N6o32k57J77J79j66J93L03l3K3J76K18J78l51R8L63L26
12646B7926L23L24K54J13J42R6QN8M0K2M5K2N1M1l2m4k9m1j28j27j19k11lJ22j84
12932B8669k23L5Jq8n11l40o8n73n33k11n16j21j14r97J84j98l15K28R0M47O08j2
13183B5442O58R22J026j729R79N07P7J80J27Pj92p9K52Pl83q8j63K12M0r26M02J32
13435B7410p79N63N37k376Q98j2m89J9n83J07M26k435O40Q59l808J028J11j037
13640B1079l62m15l36l0k14K26J24LL70k35M89P73R6L05O75L80M38M87N87Q54m81
13880B4813P52J144K34J94J022K15L05P56j01L07M50m40M24L00j95J83L6J02R7k84
14109C0314K70J99l34K30J63k60L8oM6Q2k3M8n7M4Q9j52J03J15r9M8j43K1J89j17
14383C0808P1Q0k47J34M3j01J41q4j7P9j59J67N7k24J80q4p7K83k48n3K88j55p2
14646C0810O2k1J25p0L2Q4j37K12N5l75K62Jj64J84m3K9Q5j47J15Rj25J31o3J4J61
14931C1226j19l5m2J6J58j66J2J52j78J16Q1j64R8q4J7J71l22J03K15k49O0K8l5
15194C1059J54j84N8J52k40J57J3j97K55j78j09K93k20M8J52k03J81r5j48L11j75
15434C1084o7K07k11Q8Oj63K65p9n0P7l50J23J00j01L23k75m0M51m23R3L36l99K52
15697C1247o9k19L94l39J79K85o00M68J13m96M55m45j07N11m39Q5K31k88K56r3k4
15937C1105L19m05J19J93k86M28j60k87N70l49o6L67m53L22Q4l47N42l40j71M96
16165C1681m75J58K27m21M53j13k57L60l89J92K40m30K91k71k45N49l65p5L11m68
16394C0953J38J31k14L07q3j28K46j89L6Q9k04K07j4j38J38j55L0Q3j68J22p9n3K60
16656C1315j94j6J70k52J27J04k08K30j9j64J70j68MJ96j84MN1n5O1j04Q0J10j92
16919C1066R5K3j47J87l1q4J41r6R8J37j74J27K6j56R6p2P3Jk61K89Q2k45K01p8
17193C1298LJ44k73L00K99k05j4n53N7K90m49K66K75l22K20k9j46K37j95M6J16k92
17445C1073J92J01j56L4j29J86P8l45K18J37j45J52j54l4J31k29J21J28j52J07
17673C1314j18o8J54j58L8O8r5J57j21p7K16k23o6J58r8J05m0j49K17kp9N7q0R9q
17959C1201j63J09k0TR0j23P4N1j83P8Pq6Q2l5L4j0j47J27J7q4J34j06r0J21n5OJ8
18267C1027q1P3nl9P1l7K6p0M2j4kK6M8k8J2M3n6L4Kn5O4k8k5N2o6J5kj29Q8J13
18610C1099qM6l5l2M5l5J5kn4N9j0n5J7n7J2R0K9qk5RMn3K6jo1L6j0jN4o4j7J9l1
18987C1001M8Ln0K8mTL5k2k7l2M7N0J0m2J9j5J4K9l3J8J2j1Nm2K3L1l2L4j9TO6m7
19353C1074%M2r9N3Q7r0J5K8l9L8j1j5K3l1QNpJ6l3L6J6q0N5K5p6L4Mj0L6l5K4L5
19718C1128l7K0j8j7K6n4K5M2n8L5J4l8L6k3mK2m8L8Km8O4k6l7M9m7J6M7o5J5Rk9
20072C1039N6k6m6J2k6K7K1l7RljOj6M0k1m8M3KJ7L6n2PMj7N0m3j5M8r0OO6o5L1K3
20461C1037l4O5k8m6M3l9QL8l2K9lk4K3m0OK4m1L3on3L4j8j6O6Qk1l0j7L8o%K5l2
20838C0991oK%M6k6k8M1k4k3J9%Oj9kL4k2j6lj2L0j3j6M0k7j0L8k5mJ2j2K4jpJ3
21226C1000l7nK7mJ8Nj0J3j8JK2j1J2mk6J1mPJ1k6J8J7j8J8j1j2K1j9QJ8l4%KnK6
21626C1011k2oK4k9oMj2K9j0k8J8N%j3j9J9j5rK6k0JJ0k6K7Qk1K5j6TK8j6j0KNK8
22026C0976k8j6L6j9oJ2k1K1nl8MqNJ5k2J3Rk4%j5jPl3J3%l8K9kl3J4j9qLm0J6Qm0
22449C0765J8Nl7j1omj7j6Rl1j7K0l1l3j6k4nl0l1k0o2n7o4r1q2j43j66j51k20k24
22791B9228j73j24o1p8n1J9j1M0J04N4P9O2j6j0o8o3O2N2N0R7O5R3J00L1J0mkk0
23111B9465m5Lm5q7k0o8p8j6j00r1l2j30j40r9j45j31j12j53j81j85j38p3o7m1J
23397B7292%L7O7N8R8J42J34J30J61J54J24J49J13M6O2Kn7k1r6j83j27p8q3m0M1P6
23694B8201P1J04J31TJ63J57J40J55J03J01J61J32R6Q5Q8R2K7L1P6M8N9K9j3N8K2
23980C0448j6O0L6%PpK5J3J2L8j9K3M6l9K5L5l0L3j1k2O6k3l0M1k7k0pKN5m5p2P
24345C0604m0k6qn2k2n4n2Ol9j1J0o3l4m3m9K3l3m7ol4J9Qk0N9qm0K1m3J5Q7QL9L2
24722C0207j1O3L3KM6J6J0jKN2J2K5N7j3L2M0l5K8K6JN2j8m1J6JJ8Qk2K3J1k3j9
25088C0598J4M8k6j8N7m5l9N5k7j4L8k7j3OjQl1j1nk2L2j6m0K6l3k6M0j3j5k1l2K0
25453C0467l1k5M6l7n8Pjk7l9J0Jo4L4Tp4j3j5l9K5l0j4K2p5m1j1m8J2j9o6m3m4
25807B9844J5k2p3M7lq0J9j1j5J2p1J9O6n8j2N5L0L5J2J5L2M0K5m2K1O8j6M5M8j6
26150C0029J02L8n6Q9L9m4M9L3K2L7j1K3L8QK3K1J4j6qM1mOL7j1M8L7l7O6K8o9K9
26504C0601K2j3J2j9M2L1o0L3M0m9KK5moMK0oK1L8m8oM6k3NJ5qM0mk1K6OK7j5o5L5
26904C0744J2m2M3K5oJ0j5J7Nl0J5ljJ1n2JL9nN6J4q9NM5j2J4K1j4k4k0LJ6nj1R
27293C0776k1k8M2rm7O5j7j03O6M0n7M0pn5N3M2J7Kl9J9mm7O6M2n6PK1j3L8N0j7k2
27658C0844N0L9m2l7L1M5j3m1j3PN3K8o1N0P7q7k6L3l3K7k5k3J00l7k8J11o5n9Q0
27990C0985pK7j2j24N5O0o5lMjL3L6M6p7m9J42j8j12P7j5n7K8o8K9J12m3j1N3m7
28321C0978pP2M8n2j46NJ40%j22K5R1Kl8JMM1J18K8k79j30J79J00p9kQ8%nMn3J3J39
28675C1163J53j04l64N8K42K3j17l0KN9Jr3RN0J26R9l05o3K98q9k59K18K22j23
28949C1176l04L7K20m3L3M43k13q79N30K44l37J19J50j62J17N2k20K21K97k22pl4
29200C1218o54L36N05j91l53K33O8m1M5mj6J10K91l36n57O77O69j562L07N68l20P7
29452C1070J46j54J52L20m34m6L9q9J50L7j20J26R6j59q0Q1P0J5L1L3j20j48M9J33
29726C1198N4p5K2N3j29N2J14k36L6K94o8j57K99l08l01L88n8JO21m78p42P30J93
29989C1503l67J46l23P4K75r9J2K9k60K39J70l61J63J99l00k0J39j1j4R1N5k30
30240C1110MJ92r5p8R2n5N2J9j11J68P4l13J60L96l71m69M17L65n10q1L15r0k5M97
30514C1663l16o00N74L93q16r7M60J02l61J56K34j91m1J38N0M6k17j46J41M3j14
30754C1101mJ55K4J9M70J04j316M48R7p0L31p6m8K47o13L00O95r84k2O75l93k27L74
31017C1287J32q0l67J91M79n46l06N56J31l89oN9P5J71O9k32k4J86k88j46K09j0
31268C1151P0P2j64J84R8k04N9k0r3J90m5j78J41J1k1P4j43l6J23k0n1N7N1q8n8
31554C1160J11L3r5MQj2J4oJ1TPK0o3j3M9k1J8%l9N6Jl0L3j9J3J4n9K6K0j7M2m5l6
31931C1196O4j6k7L8Mj1
##END=

