##TITLE=TPA measurement4
##JCAMP-DX=4.24
##BLOCK_ID=1
##DATATYPE=INFRARED SPECTRUM
##OWNER= 
##ORIGIN= 
##SOURCEREFERENCE=
##XUNITS=1/CM
##YUNITS=TRANSMITTANCE
##FIRSTX=3.998485E+002
##LASTX=3.999913E+003
##MINX=399.85
##MAXX=3999.91
##MINY= 10.68
##MAXY= 90.55
##XFACTOR=1.249972778172271100E-001
##YFACTOR=2.829564557365326800E-003
##$CORRECTIONDATE=<06/10/26 10:57:15>, <System Administrator>, <Scan on IRSpirit, SNO: A22415600520>
<06/10/26 10:57:15>, <System Administrator>, <Measured with accessory: 1102 (S1102SC00485)>
<06/10/26 10:57:15>, <System Administrator>, <Atmosphere Correction, H2O=ON(Low=0, High=0), CO2=ON(Low=0, High=0), Threshold=1.0, Smoothing=ON>

##FIRSTY=10
##NPOINTS=2522
##XYDATA=(X++(Y..Y))
3198B2752L41n191P46L863j834j416J55k037l75K525l13j679k164P14J501J359l57j865
3404A6725o06Q76O74q49p06m3n66j98j72p95J84l11j564k91o74m32J430j16k43
3621A2323J470Q5K04J467L29N45L03q6M72k2q7J50m39p1m3m24K23j28n44l4l43o44
3872A4706l76j03J91k19n20j46j09j55k57k48N0j06N7M21J99J72j01l65j18k53
4101A2720m15j53k69k76j43k85k75l03m9K93K00O35P40N82J110P94M98Q69L11q8j3
4341A6483j77L5j30l21N3k80l17J28k37j64J15j38N3l3j09M14K76J79M15L86Q77
4581A7508R78P35J009P13M31N24J68P0Q8o5J26o0k58R9j30l09mj21Tm2k67j20m7j64
4855B0741k4j36j87j3j41j32m3k05j62n5j35j83l6L2k29k23nj63q3Q0k08j57n4
5118A8279k23n1k8j64p6j83j42qj86j73j21j13m7k30j49l5l12j22M4m78j99j97l36
5380A4750j52l85m04j26l52k77k54m17j61k82k38K67L39L93J5m04k80l91m71l36
5609A0834n35m57m06o70m68n01o55l93n40m85k81n37l05k24m41r5o8K6N67R54J423
5849F743J439J530K134K472K836K443J098K35K5p1n2r2k27k32k27k68k53k55k90
6066A8988l34l72l74l91m04m40m88m52m98n69n47o40o35n03m32l8N01J116J888K116
6294A7492J865J327P79L98K8j64k61l65l80m07l50k43k92k36j49k92k56j57k19
6511A8118j23j30k23r1j54k46j30j98k29j99k64j73j85k33o9j23j69q3k11k31k18
6751A4436l07k21k73l11j32j67j78j60k93k41k81l84k98l96m12l46n03m55m78o17
6980G983m98n94m96j46kR66J726O98k05J037L090K595k5j121r13j008q15o04o45m38
7208A0585m97m61k33m01k25j16l69j54Tl00p6j85j64J8j46j5O6j4J56Q0J43L12
7460G850J27K74L61K03L66L25K98M72L50M11M73L58N06M64L95M99L95M80N25L55M56
7700A5943M13L51M46K77K88L10J24K37J45j2J19j12p7N3n75m79L28M40L26O1Jj6
7951A8591j235j336P93J315K64J25J24o5L5n2j80j83j35p3m13j080j274L04K992
8168A8517L031M35q16l01k28k57l9j00j29m6q3p4m2o3k6lk6j0l7p4l3m2n6k3l8l0
8465A9407j5o2o6o1m7m2r6m6k9j49j21r2j58j10j19q9L5lM6R4jN8J0j04n2j36j92
8774A7860j77k77k55l39n35m63n95q43q86j091p06M74J484K197J998J271M00l70l02
8991A8845M5o8k07m48p57q25j140j186j42R38J475J341R33O73L50J91J26j0M3K7
9219B0204r0rn4j25m8j25j38r2j94j48j01j58j13j67j93j35k27j97j64k27n3K4J3
9482A7483P9l2l3Pr5j9n9j72o4j31j85j10j85q4m1j59k1om4M2q6Tn0j77q3j07k00
9790A5382r0j79j67q1k28j46j39k45j05k24k51j05k93k31j83l61j79k41l15p7k40
10030A1302j89n7k76p1r7k75j3k25l06j55m73l57l06n51k68l65l66M3j34J19M00
10270G380J84N21N01L77O94M56N07O50L12M85M32K46N32L67M15O69M92O87O71L28
10499A6906J88q9J27P93R37R39O30J88Q9k4L4L21L67N70O30N71P02N78N40N09M20
10739B5926M69K78K50K55J7Q9O0o4j4j41j10n3j79j85l04k38j21k94l32k62k94l60
10990B4393n41l83m09n89m07m19m00l13m18l70j94J45J65j55l44m82m36o66r02o81
11218A6594q25q63j21K62M95M91j53L8j33p38J0o76p71L64l09L26R53L77J284J100
11447A7705Q49J646J149J083J181Q96J071O14N72O40L66L55Q6K44J34r0M75l4
11652B8942q71M29j82j2J46o63qo7k21L12m41n23L08m28j68J10k81j32j28j02k6l96
11904B5598j05m24n39J20k93p88j24p26n96m85r85l28j238l340J26j48K440M153
12109B2318J654P24J12o2K74j021m7K54o53j00l2l72K31m80o16M04j6m39J02n73
12338B1662K64q4m82L83j83o27L78l25n36L15k07j061j11j39J42n95l55O3q75n27
12566A7100k63m21K51Q09J088J272J034O4j8j91l73j95l33k37k49k72j60l79k55k22
12795A8050m06j96l39k86o4l84j82q2k04K54J09l49k8j79r5On31r1j8m10q7k12
13046A4276l16L7l17n44l5l56j80k15l71M1k57m85J09k16m7j34p70n2k27m95r3m14
13298H939n71Pm75l61J02p57J29J09o10Q07Q7K9R41m7M33R16n15Q79O36M3J339N27
13549A2587L88J659j11J278J392o75J753P68R8J975L56Q72J764N7J450J454p90
13743B6275J906N09K49J117l61L30P03o41M45L65p01K04j19K07K82p35M35P1n18N73
13972C0596k94l77N72q33N5M05o41pQ2l29N2m09j6K61o92QL02o31Q8L8k15J52j41
14234B8026j80N6j23K3j17j00J79j15j74l1j18J45j5j19J24j77K8J36j98J04N4
14474B7408j95J08o5M8J64k73R6P8j92K74j78k49M00j63k71K28q8J02N7j21J33q2
14726B7219J10K23m64K30J97k42K29j7j21K61j42j3J14j89J83k7j42L28j32j60J78
14966B7623j54J68P9j93J95p8j02J60j46O8N5r4K17k68n4L38k83J0J84k55J73qj90
15228B7445K27j53J3J42l11K22L6k07L86k29j96L96k17K4Q7l03L10m0j60L73l67
15468B7478k4L67l91K07J49m16K51j46l2L62l77R3P7m15L43j04k86L22l08J5R5l59
15720B6901L51k29j13O15n74R9N61m35O17n4l13P90l82j13N06n39J45Q8l92N65
15948B8094j57k17K92l76K12N4l77O46m08l91P40n61Q7M84p10L56m8m96P00l79k13
16188B7332N24n02K99J45n66M37k44j56L76n27K20M6n68M82k07l76M06n12q8M16
16416B6937k90O6K6j99K09k24m7K38l32Q1J09k33K30o3j00K25k55j0J34k37P8l3p3
16679B6237K20j87k4J42k10J85K7k83K16r3j14K96j70r8J12r4P9j18j09J97j05L0
16931B6136J28j89Q5J3r1K19j35q5J87j06J43j3k10L64j26j73K82l01J48L16l74
17171B6218J92j25k21N78l11l7O38m69Q0k27n44O00k21l58N09j61j1R8l18K48n5k20
17422B5883K89k72q3K14k78J17O4k16J64o3o8M4j22J98r8k81K41n1p5J90j74J3
17673B5636K3j69K00o9j94J55l7L0K4j65O2j38r0J76j94M1K27k40J2R9j38O2q5o8
17947B5160J29r4L7Tj91j0m1o6K1o9m5Mm6J3k5p0Rl6k3Qp0j0j4o7Ok0l4ml9%pm1J5
18324B4417l4n2k4ql2l5l4J8K4n9L5j2l7N2j1pK1j9J8k5k0Jq2L8P4n3K2jp9L4j0
18679B4120n3lm0Rj6n5J0r8k9J16Ql1oo7j1j6p2ln0k8K3p8rK6o2j3k3n0ol7l3j4l8
19056B3371j1j6l6rm0j3j1p5%j0o9K0rl9J7m9n0j5m3K2Jn0Pm1n7kj7J2j7o7j0oN
19433B2693Lo9J2K5q8k9Ll4j1l3j7j8o6K0K1n9pjm0l5k4L5lo9J0Lm7j2l7j8K9k8k9
19810B2080Lk2n3o6k6kl8l2k9m6l0j3rn1o2%k0m1l0q1k4J9o1%J8q8m9j3k3po0m1
20175B1103Mk7j3m8o1K6j9m6Pk5pRj7K5J0K0N0j5M4Q8J0N9P2L8P3O0J06J25N8J24
20518B1833J47R4R0Q1J37Q9rQ9P0j7M6Mk7J7k5j8j5l0J5k5k0M0j5OL8k2Knk6J5k5
20872B2534m7k2j6J9k5n6Mk6k9J2m4l1J0j5%k9n1Pj3m5k0Tk9l4k0mj9QLn0j5OnK4
21260B1962JLM6J0J7N5M1N9O0N2Q1P8Q5R6R4J18R9J06J31P6Q2J15P5P2TO0N9L5N9
21592B3899M7mK9Pk3J3m4n0J5l0m3l1l4K8Rk6K7RNL5qJJ9kJ0j4k7Nj8k3j0j4rl2m1
21992B3675k7l4k9n1Tj1m7Tj0p0n3jm8l8j6m2k7l6m0k1m5l4m1p2l3l4n7l4n0m2l4
22346B2500o8k4mm9k5j2k3j1k3j5j4j8K1ml3J0QJ2K4J3M0L6L3P6M3M8P1J7N0O8P
22700B2754L8N4K1M4N4M4L9M2M8K7M2TQN4L0l0L5K4k5J8J4%nmM5Qk6L2J1TN5OPL9
23088B3556K1K5J0K0M0J9N3K6k3N0L0j8M3K3LL1QJ2UL3k6k2K7j1mJm1rMj5j0j2j%
23488B3867Qjl3K9L2l9M5M8m0L2L0j9K4rKK4l8RM0K4M2k7jP7KJ1M1KN0M3L3P7QJ7
23877B4410O8QM4P2K5O4N7K7N0K5K9N2K3J5J6L1K9K5O6M6M9J15N5K3O2N1Q8N8jN9
24219B5741O2M5L9JP4N7k2N6L4NN6m9j6N5o3k2j6j25m4o9j84j68k04j60k4M9J60J54
24539B5422Q5J48J59J76K11J35J27J26Q7R6M5M6P3J7L7M9K2J8n4n9o2j71k33l34
24813B6166k81O8L36M95N30K98K21J92P4J34P1j7Q1J5NR0MNM2J6O2M4K8M1J6O1J4
25122B8811LJ01qj7R3J0L2N7NO2k5TJ12K2K4M5l4P2Oo2J26K9l9Q9nQO4%P4K5k9N0
25488B9676j8J2P1lM9K4j5N7ML6P1qN3K1JP2l1N8J26q6RP8k4N2l1k0J28k1pN9m3
25842C0350P5L6o1P1Jj0P0k5L1L3j1P1m5k0Q5n8K1Q9j1N6j8k3R0o1qR7m0M1N6m4L3
26196C0871lpOn9P2M3o5O4jn1N3KM7M9m0K9j8j7Q5rL8P5m8%rj1N2o8oP4k2N9%o9
26584C1116J09K5n6K0l4M5M9l5P1J1k0L7q2QO7o5lJM4R9j03%J03q3L5Qj01J02Jm8
26927C1321J06l8kL3r9M2j2q9P1j6J7O5j07M1M3p9J06k5j16J09mm8M8nL8n9q6Q3o
27258C1332k6J6m7P2j7j12J16L4r7RNN6%o3Q9j3m4O4j01J1J07j18K7N2j30J00P7j69
27578C1230k2Q0K4k7j1M7m7m1M8m7KO2n2j3K1k4nj0J7rl3M2l6n4K9m9K1N2q5L4
27921C1144N4k3O4m9o7P3k0K3J1j95J8J63l3j02j5L4j3pJ07j2k3J34j22j70J52%j38
28229C0988J5oL6O3m8n6PQ7O9l5Op1j84P5J64m9j33KN0L5N3J4r2K8K35R7l94k44
28549C0712J64J13n2J3K4k4O5Jo1M4Q2J55j25n35J37L68J4j17j14p3J86mj72J03
28823C0904J8R4K19m33j18M47j35l83K29K39o0l54l3L20l1lP10k28j398P47L95n65
29075C0581J05J83j68J54K03l45K53N04l02j00l3r38M47P21l72n38M09O8p2O0J7
29315C0837nJ27M10m86p09P47J079k163L66O92l42N7L60l35K21O08q00j06J18k15
29543C0461K45Q3k63K09K47k30j23M8J23J30K1M3k09l58R7K57O8j11M9O9j93Q6K34
29806C0983m09j1N21j92l40O35n18o53P33j11j3J159q05j410J324M80p74K19o25
30023C0193J06N50j47J6K4m96N11L67p88L12L90o09o7K93K3n7J34J40m55j7L86k01
30274C0608j36J96j78R7J06k17L49K09p19K86P43o50q78P28O60r55j53O46k11k1
30503C0510Q59n11r51Q65O53j291j48O57J58n03K05L70k65p0J98OTk40k08J43Q6j06
30754C0423j2K21M5m2P25K41k234P47L18q9L58j17rM27r42L81J099j511j04R93
30983C0918n34l06N86J77j06n63K46P71p25o04P84J94o10K6J20J43K21P7k73r0K20
31223C0672l73k48L00RO8J14k27K56J89l75N0Kj37K99r3l41K66O5n4J16k10j15J70
31485C0403Qr6J00J60j81j57K27P8j74Rn5j1R9j8%oj2N7j07l0J08m5lJ1n3Q8J4
31794C0414q0OKM6j9o1R1j5l6J07n2o5M0m2j6qJ1N4
##END=

