##TITLE=TPA measurement3
##JCAMP-DX=4.24
##BLOCK_ID=1
##DATATYPE=INFRARED SPECTRUM
##OWNER= 
##ORIGIN= 
##SOURCEREFERENCE=
##XUNITS=1/CM
##YUNITS=TRANSMITTANCE
##FIRSTX=3.998485E+002
##LASTX=3.999913E+003
##MINX=399.85
##MAXX=3999.91
##MINY= 10.77
##MAXY= 90.56
##XFACTOR=1.249972778172271100E-001
##YFACTOR=2.829927861077646100E-003
##$CORRECTIONDATE=<06/10/26 10:56:07>, <System Administrator>, <Scan on IRSpirit, SNO: A22415600520>
<06/10/26 10:56:07>, <System Administrator>, <Measured with accessory: 1102 (S1102SC00485)>
<06/10/26 10:56:07>, <System Administrator>, <Atmosphere Correction, H2O=ON(Low=0, High=0), CO2=ON(Low=0, High=0), Threshold=1.0, Smoothing=ON>

##FIRSTY=10
##NPOINTS=2522
##XYDATA=(X++(Y..Y))
3198A7152K811J497l573L79K008k16k04k310j414J511l73j024J118m22J137J716j829
3393A7964j001P24q52m46L79q32l88L83n60p40O5k79j250o98m40q21O83O07j039
3610A1459N72J532J23Q77P57K95J080K8j8O40q2q6k52m80K29m56k47N45m69n64Nk20
3861A5268r0m17l58J67l55k08M8n73j74l03o66J62J17J27N79Q3O7N4m76j28m6n04
4112A2374k11q7m31l35r2j55l32qK18M3O30Q27N69J005Q21O08P61K29J35R9k98
4352A6370r1j62k25J37k72l24K5k39o1L2j51J41r4n0M57K6J35O25L99P94R77P51R83
4615B0183O96M82N38J58R6L9p1J85q6k40J56j53l16J3p8j60j87j70Lk18j89O6k47
4878B0500j84J19j31j90r7j47j16j29p7j03j51J1j45k15jj73j03N4k45j17l2k18
5129A8110kj27k53K8j65j54M1k70j49lk32j03j26k00q9k45r7M3n34j75j52m07k10
5392A4529k97l73j86l73k57j81l89k23k90k47K37M02M28l3m12k67l77m76l77n34
5620A0304m87m70o18m06n21o46l59n43n26k98m83k92k58m52j17k4R3N24R76J431J311
5860H139J546K207K410K856K485J055K47N8l3o3k21k52j13j73k64k82l19l36l53
6077A8594l14l40m43l68m11n44m27m97o08n00o42o55m66m56m0N29J071J873K102
6294A7458J844J403Q03L62O0j63k96l69Tl72l74k90k44k25j89k61k50j75j83j23
6523A8047j61k10p7j46k48j83k28j79j64k98j97j69k27p3j18j73j14k31k06k12l27
6763A4106k00k52l13j23j86j87j21k97k79k86m03l22l88l91l22m98m59m61o09m88
6991G521n78n26j81%R67J739P38j96R97L064K630oj160r20r67p91o14o81m61m85
7220A0090m62k26l74k37j23l46j67j82l01o8j74j72Lj27kL9k3J74P5J21L15J52K65
7483H250L21K03M07L38K80M62L60M17M71L61N04M53M08N20L83M71N29L41M60M26
7711A6365L21M40K98K73L22J43K02J60K8Q6j17n5M0n42m65K60M46L67K2lK3j254j361
7974A5999Q20J342K48J04J47o5Pl7j68j98j13p2m51j064j242K80K973L048M25
8191B1983q45k79j99k73l2q9j63m1n5q5k7m5Tnl7m3j2k0m4q3o2ml8l6k2p2m8l9p8
8522A9162n2n7o9r3j36p0j02j72p8j18j11N1JL7J03k1K9K0r1n4j24j69Tl02k67l24
8819A6824n25m64o27q71q37j062p44M62J497K228K031J237L70l64l44N0j6k19m29
9036A8197p07q76j193j164j20R42J457J329R58O90L43J76J16mK5J6m1mr7j22n0j34
9288A9737j26j13j86r0j16k06j10j64j77j08k43k16j60k19m0K3NR3k7m4J3r0l5
9550A7401p2j70m8j28k01j13j70q9o5j56JTm6K9r6o6l6j93r5j07j93p8j88j77p7k34
9847A4634j38j27k59j08k13k55j05l00k36j62l57j91k38l26p9k27k00n1k54r7j07
10087A0604k52k5k38k99j53m56l49l27n54k59l70l69N0j21J15L85J88N19M90L91
10316H970P02M41N08O62L18M94M32K26N20L75M19O62M97O95O57L19K07q6J16Q00
10544A7934R40R33O25J93R7l3K6L34L59N55O48N69O82N91N47N06M27M61K76K62K47
10784B7179J8R5M8o9j6j35r8p9j87j46l13k44j03l10l20k36l18l68n34m03l96n82
11036B2483m29l99l88l32m09l68k04J56J59j69l22m76m37o60r20o95q17q56j20K70
11264A5067M95M90j53J8j37p06Lp23p41L78l08L34R39L66J301J093Q33J657J151
11481B1357J104J178Q62J076O50N53O25L73L20R3K86J38j04M76n0q50M20j94J1J43
11710B8467p02K1o2k39L27m44n33L31m32j76J16k84j32j23j04l1m13j06m03n48
11938B4530J20k84p98j06p15o28m93r76l40j235l302J21j52K425M149J666P17J02
12144B4801n1K78j028m8K35o57p1j6l72K34m83o35M03Nm16O6n67K76j05m79M01j80
12395B1591o42L66l34n11L07k39r78j48j56J49n94l52O2r03n21k46m22K49Q06J084
12624A8568J266J026Q0j1j97l59j94l52k39k46k82j66l62k40k38m09j77l42k80
12841A6846o0m14j65n4k35K45J33l29m2k00r9Nn56o5jm38q6k05l14O1l09n67l3l64
13115A2754j63k14l99M9k46n02J26k20n5p8q21m6k12n25r8l77n74j8m83l36J49q07
13366F904Q3J43n77P55R9N7R26n0M61R06n20Q59O11O5J344N13M06J669j29J275
13595A5800J367o47J772P71Q9J969L51Q85J766M4J447J439p94J941N09K35J106l55
13800B9695L35O96o51M45L74o68J98j44K07K93p28M38P2n15N65l06l59N80q42N5
14029B9740L93o37J2O2l35Q1m28m2K54o79K7K90o52J18M3k36J44j36j63O3j37Oj13
14292B7675q4J88j31j68Kj39J04j1r3J26j84L7J57j89R4M1j98J15n8K7J38k43J13
14554B7319N3j74L21j89k96L87j55k42K25j21Q1N7j23J56m9J11K07m75K37K27k59
14794B7298J99L5j06J89j52J1J21j75J54m5j24L18r2j14J28j48J61L9j55J87j06
15034B7623l7J67j73R5L4r6K25l03l5L27l15N1J78k55K18n6j83K95k13rJ82l57K16
15297B7579N4k38M30j75k73M01j63o3P6j85L13r6j49L37l66rL08l52K26R9l20K82
15548B7716j79rK07l64K67l6m11M60j90j51L07o00J75Q6o10O45n7l02O62n89J29
15788B7156O65n55O72n6m89P99l95j67O18n33J03J68l67N27k31k69L38l81J79J34
16017B7916l29O59l47l96O31o22P8N03n83M50j30m74O69n71p5O54q04K35L45o15M05
16257B7599j63j48L70n48K16N7n30N47l35m87N31m62o2N41l75p7O2j97J94j76o2
16496B6495K32k82Q4Q2k64K13k9q3K03k63L2J46l37N3N9j06K14o6n2J13j43P9k1
16759B6359j51J71j33m7K25j70k9L6r4J55j54j32K28q3j5K6j44K04j7j28K63j03p0
17022B6197J34j76J48ok26L66r0j12K95l08J45K60l49K80j44l14M97k31l4M99k95
17262B6536J68m17l94N36m13j19N31k97J76Q9m62K68q4j71L55k91m4J28l28J31n0
17502B5848j20K61k08L1J67k68J32m8j40K70k68l3K47l52J52J66l13K34n5k18K53
17742B5738j86l4K19k58qN5j37M3j36M1J57k19N5O6j83R3l9q4J16p6J0nj37Qr0n3
18039B4956P1j01l9K8j04K6L7p2J4n2l2J1q6Lpq3J0l4l6M0n2l0jn5K0j3o1k1j4n5
18382B4268L7n2J0Mp2L5Mm4M7J6j2j9nN4m0l4J5r9K1R7l7K0Lr4kk6k7K1m9Mj0p3
18747B3961%q0k3J12J4k4j1q7m2om6Nl8l2K5m4l5l1m3Qk9l6rm0j3k3n3kk0l9J3m6
19113B3286k4J3n8m1m4l9L3m5n0M0j9m9m6k3N1k9o0K2j9k1k8n5K4j8n0J9l8j4jj07
19455B2610jL8p2mrn1Mm1k1J6m6j2j0l8Oj9k4j8l4K2mm9k4m5J2K0o8MJn9K1k2n5
19832B2028j9p5%J2p4K6j8r6J8l6n9J9o6o1j7l2J0o9n9K6p8kO3j08m7kr4mj2n4J7
20187B1137m0m1j5n5J8nn2J7l1rM2m8OM5pM4LkQ5M1M9P7L9P8P4P2J17R2J25J49J07
20541B2112J04O6P9R2L6O9N8PN1ll8K0k6l0J6k0rnm0mK3J6ONK0j5l2Rj3l7k6k3p
20918B2461k5l1Pj7l5j6j2nk8l2%l3k9J0l3k8kl3k6k1l0qj9j5mk1kj0j5K7kj5M4L0
21306B2032K5N0L6N6P2N9P2P3Q8J06R2J06J05J04J24R0P3J01R6P2N4O6O9M6N7L2
21603B3956kK8Nj4J0k7m0k4l7j5k7k8J3j7j3L8J5K7K6j4R%j3J8nj4rk5lk0l0%l9m5
21992B3684j7l8k0l2n8k9n4m8ro0m3j4p3l4jm5k0j8m6m2n3l5l8n9j3l2p6l8m4n7
22334B2538l4m4k0j9n5k2kj9j7k9j4%k4lJ0rLPLJ3K0L7L1L8P0N5M7N8M0M7N7L9K3
22711B2825J6L8M5M6O7M3L6M4J2L7M7J3M1K4MM2Mj0J6PK0j5k2L8jTM3KK9K5j5O0K1
23088B3581l2N7K6j1N2M1L6K6KL4J1J5M8%K2L3j0J8lKM8k0qL3l8j2J9k7k1k3%J5
23454B3914k1n%J1J0n6MO3j4K1L4k4K3J2j0K4j0K3K7l3K3L1J0K4m2K0Q7mK0L4kO7
23820B4261L6MN4L0N2N3J1P1M4J7P7K7TO8K6N0L5jL8J3L5P0J4M2N8N2R5M2M3Q4L3
24174B5561P5O3NP5M4K0O5J5O1N4l8N3N0lN0k0nK7p3oj1j09m3j09j85j39k04j63k8
24505B5082N8J70J19Q2J83J40J63K21J38J50J06N3J21M4TJ03mL7P7j4Jl5n4n1j86
24791B6748k36k84k78L3L29M97N33K92K26K30O1Q4P1%Q0K3NO7LM3M0QR8Jl5R9N2
25099B8790M1TqO1K0jO8LM7M8l5Q1K2n8R5L6LP5j1L0K3l3R5K6k1R2lnO4lM9N1rJ0
25488B9684j2N6M3n6P3P9l6K2L8M9L1j5Q7N8nL6l6N5J06n6L1N0l9N4j8PJ25l1JN6
25830C0437l8P2K8l4O3l6K1P9p9K6N6j5P5m9k3J03o4J0R7j3P8J9n0M8l0K1N4n5P8
26162C0879M4q5L1koL4k5P4qq8J22Or5P6J0mL3l0O3K1m3N4%K9O1o1J8M1l7K4%jJ9
26539C1154j9O5K7k7P1j0l4M4j3Oqj1Q5OJ4K4j03L0N1o0K8m4J2J11j13L8J42j55J5
26870C1326J10r9J1Pk3Q1KM4j3j43O5O0o1Nm1L8L3j03N9Ro4J27m1q9J11k0j6M2l8
27201C1379K1n0l8P7n7pM5n1O2qn8Q5n0n5L4n4O8K4o2Q3m5k1Q0j33N2J24j55M7M8
27533C1385j31J19K9j74J6O4K8m5k3R9p8o2J16n7k9M7p4M1J7q2M7Jj5K9k8N7j8j19
27852C1160L3pPO8r2KO2l9Q3k7j44P0M8QOj78JJ85j7j20j4K6j6j4O8k7k6J19p4
28184C1151j12J22m8j10N1l0L3Q8p4o1K6M9P5J3Lo9k26L3K43k2k06N4R1j8N7J6j11
28492C1018M6J96O9l26k89J53J89m8m6KoR2Qo1K7P2K10j26o20J80L84l2q8j06q9
28778C0809K16k7j80J14l6J24K74n10j05N13j87l95K84K38o9l76k9L45o0J3P55k37
29029C1474j463P91L97o20J46K07k06J46K18l60K30N00k99p4qr40M53P15l90n10
29258C0407M24N5q8O5lj6J43M14m98p24P80J041k162L74O95l69O9L89l31K74N82q98
29509C0623r4K02k61K29J13k82K26L05k65j70Q4J23J07O3P0k58m01J12K90O4j16
29749C0764Q2N7k28J22K21m74K1N36j93k88O51o60o00P91j73l0J230p93j476J391
29977C0951M47q73L09o64Q7O35j63lM4n50N41M19q55L28M45o64n4K87j3rJ52R6m32
30240C0461lL71k04j56J97j55Q8R7k07L65K07p35K95P57o73q85P65O50j002j14
30469C0119O50k39mQ73n11r71R15O18j365j37P32J94n80K32L91l27n7K77J5n0k86
30709C0489j77J43O0q6mK39O5p7O98K53k209P23K91r3M60j57o7M86j013M03J196j622
30960C0001j21J111o14l35O31J99p9o20J87Q42p56o33Q33K10o16J2J00J64K68
31177C0784N6l34n7K70l94k83L03RP3J48k25K04K12l86P3j9j80L49p0l51K73N9m4
31440C0470J24k55r2K05j3q8J05J19k00j22K55N0j84L0m0l3R3j%j0k3M6q8j2R7l7
31737C0396J0j4o5R8oq8M2RQl4n2R2j2l1J00n9m9N9m1j1M%M3
##END=

