##TITLE=TPA measurement1
##JCAMP-DX=4.24
##BLOCK_ID=1
##DATATYPE=INFRARED SPECTRUM
##OWNER= 
##ORIGIN= 
##SOURCEREFERENCE=
##XUNITS=1/CM
##YUNITS=TRANSMITTANCE
##FIRSTX=3.998485E+002
##LASTX=3.999913E+003
##MINX=399.85
##MAXX=3999.91
##MINY= 10.69
##MAXY= 90.79
##XFACTOR=1.249972778172271100E-001
##YFACTOR=2.837152153922818000E-003
##$CORRECTIONDATE=<06/10/26 10:53:46>, <System Administrator>, <Scan on IRSpirit, SNO: A22415600520>
<06/10/26 10:53:46>, <System Administrator>, <Measured with accessory: 1102 (S1102SC00485)>
<06/10/26 10:53:46>, <System Administrator>, <Atmosphere Correction, H2O=ON(Low=0, High=0), CO2=ON(Low=0, High=0), Threshold=1.0, Smoothing=ON>

##FIRSTY=10
##NPOINTS=2522
##XYDATA=(X++(Y..Y))
3198A8028P570n073l141R84j296L021L173l185k352k42J008K320K198l966q01O41j074
3393A7813o66J118r11j518N55J32m93l04m95j12m27p47p63q34o5n48l82R19m86
3610A1786k53J714O10R18Q63p0J252P8o25J010n48q17J365N4n29Q9p78j20J08n21
3838A5586J08l14p80j22r5kj81n12k1j28l10k74n66o0L08J11L67M62J75k64m04o9
4089A3015k39n35m4j92m86k9k48l85r2j09J86L86M10O37P42Q77Q59P30N78K10R6L2
4341A6399j56m3j12j84N1k12l38Qj11j36R5l0j36j16J60M00J01R7L77N45R52Q70
4592A8481P64J007O36M29M60J64J60Q3q8Q5j32j82J86j78k93Q3j47k04k8k28j53n3
4843B0852j43p0j39j40k5j08j05j43j94q8j52j25m9j30k2q7k45q1j00r1Oj94q8l6
5118A8303k84m1M0k09j37j74j24j9k36j38k8j66q4j82j98p0k44p9N4o59j46r6l82
5380A4701j79k93m16j49l37l36k22l81k32k47j76K19L11M14M5l63k66m14n01l09
5609A0869m99n34m84o37m03m89o68l51n42n80k41m60l66j82l87k08p0J06N27R37J395
5849F733J418J637K134K358K849K444J025K68J06p8r1r6k55k68j70j98k64k60
6054A9292l28m14l39l22m17l81m07m96m40n24n85m98o31o26m88m70k7N10J055J898
6283A5362K114J801J370Q30L94L3k11k65l12m11m02l36l03k57k00j82k36k66k60
6500A8263k04q9j44k10r6j36k13j75k16j77j83k98k09j82j89l8j35j96q5k18k60k08
6751A4402k73k28k75k83j34k05j78j14k90k78k95l96k97l71m09l40n02m80m69n87
6980G998m85n92n26j54K0R39J713P47j75J010L042K603Rj139r14r86q12n72o58
7197A1068m91m72m50k38l64k56j40l31j74j68k78r7j87j56%j24RM1l7J90J22J11K78
7460G856J52K47L27K33L52L10L57M71K98M20M87L29N01M85L94N05M13M44M83L75
7688A5439M91M26L24M09K88L10L09J14K20J63J4R4j09n2L1n64m47K83M05L63P1k5
7940A8557Kj218j354Q11J333K40J31J38q9K8n6j85j69j17n2m27j110j253K92K961
8168A8463L057M28q21k59k32k53m4j67j11nj04m4l3r2ok5n4Nm6m4k6r5k7J5o8l5
8465A9377l0o5k0n7p5n6j14n9l8j38r1r5j58r7j24q5L6nN4Q7J3P3k6j26m5j33j81
8774A7822j52k69k72l33n05m96o26q19q87j067o53M44J441K203J998J272L96l80l00
8991A8817L0o5j64m44p82q38j138j169j28R40J464J336R42O56L37K03J12j5O0J7
9219B0171r1qo5j15o2j37j11j04j94r5j19j99j00j73j88j06k50k22j37k09o8K6L3
9482A7477P7l9k7Jj05k4o4j62o0j42j71j10k04q4l8j51pj7n2M8q6p6m5j84q8j31
9779A5536k02m6j84j97p0k27j47j24k64j14j96k58j16k76k26j85l58j84k37l21q2
10019A1522k22j88o7k76r2r3k39j8k35k96j57m68l43l09n61k72l47l60J8j20J39L77
10270G393J83N29M85L81P00M45N05O47L06M97M44K37N17L74M17O45M92O93O47L18
10499A6855K10p1J26P75R41R55O10J79J07k9K3L23L58N53O31N83O93N63N53N10
10727B5448M11M78K65K34K76K7P9O5p0k9j29j05o8j77j62l09k38j09l11l39k45k99
10978B4693l51n27m12m09n72m25m09l89l35m00l38k08J46J64j72l40m67m30o64r05
11207A7250o79q16q52j21K58M96M95j60K5j25p03Kp27p31L77l11L49R31L41J285
11435A6584J077Q32J683J143J036J208R00J080O25N49O37L64L05Q7K71J35r1M71
11641B8896k8q00M12k23MJ69p29j4n0k50L14l95n35L36l95k05J04k85j52j05j03o1
11892B5905l82r0m13n18J13k88p62j40p49o10m86r89l54j193l271J06j32K387M093
12109B2227J699P22L0j4L27j073k7K63o37o7m7l91K39n19o18M23j8m50J13n43K88
12349B1927q2n03L72k00o33L61l50m92L28j92q77k41j63J38o21l55P1r04n33k43
12578A6808m09K62P89J080J287J027M2j4j77l69k04l45k34k47k86j58l42k44k51
12795A8015m13j76l32k89p3l94j59p4k41K53J46l37o3j74q6Mn38r4k0m08r3k32l03
13058A3919O3l46n47Rl61j77j94l80L8k60n42J39j77k7j47p83n0k10n14j12l67n55
13309H419m0m92l52J44p45R5J16n85P69Q5L8R47m5L83R55m74Q54N99N3J338N21
13549A2583L69J655p9J280J377o47J761P79P3J952L58Q48J730O3J465J455p64J907
13755B8165N22K47J068l65L29O79o35M40L50o68K26j34K30K97p75M24Q4n32N34k69
13983C0217l37N25q18J04L91o59J2P6l27N6m39l0K66o72K1K93o47J02L8k21J69
14223B8120j40k09O0j09J5j19j02J75j01j72l6j00J32m1r7J39k05J6J49j74R5K5j75
14486B7146J33p8M3J43k91J22Q7k05K93j77k70M07j69k66K51j06P6O0j27J61m4
14726B7189Q3J65m45K68K30k54K00Oj01K22j73PJ31k31J65L0j42K90r7j60J71r8J38
14988B7594%j60K18j06p9J87j58P7N7j24K12k21o7K93k57M6J46k99J80L5j64K00
15240B7610j90K7J94l08J78J0k04M03k04k16L88k12j1J24k38K84p9j88L71k88l7
15480B7414L09l40J82J53k88J87j76M2K04l95K77K7m61L98j52k47K65m63J68J70n31
15720B6743M72o8k48N19n98J47P01n18N54N2l90P01l41k22M64l73J43J12k26M38
15948B8062k85j6K92o05K90J56n10O53l22m76P09n21Q6N33o98L57jn46P12j84j22
16188B7564L73p24J56K52l04N34m01j96L54o08L41J69p38M38r4m48L73l60J7L57
16416B7055m46N5J08k60J90j92j16K63k97J3J80j83J69n7j32K06j77k5J27k10O2J8
16668B6351j00J32j08j3R2j59J02Nj35J59j50n3K14j55PM5j39J03j03o1J74j62K4
16931B6070J18j41J11q1j19K57j19j9K32j44J03o1k28L96j39j95L69k19N0J95l01
17171B6135L08j10l13N36j61j13L58k61K52m15l89O30m33k09N90l46J4K13l61J23
17399B6048j04j16L21k75L4J96l58J42L0k02J90j12mL8k15K63r6k74L63j95j92L64
17650B5846j54l4N7k39J67q2k14K74q1r8J45j63lJ3j28N4j03JJ49j13M3qj61J02
17925B5270o1q3J50p0n1Qj03ro0n4L0p1m4Mn5J8k6n7N8n9n5Qn4j8j1n2j1l4k0Qm3
18279B4453j6k3m1K5l3m9p2Nn4M7n5QOn7M0j5l4N8j3j8J2kK9l4k3j0r8L6P2k2N6
18633B4178k6j06K5l0m6Rm3K5j0o1j4j35nJ53jn3j1n0nl7p4L4j9k8J6q4l4Pm3j6l5
18987B3481l6pk9nk7m6Kk7l5K5l7k4k1q4ok5n0M0m8n2L4o6l7J5l8L4k4q2L0k3n2
19341B2780J5l3kNm9ll6m9lm9kJ5o4j3j0m0Ml2j1%p6qK7l1lk4l6j1k3K6%p6k0QKk3
19752B2155o5K3J1r2j7nl8J0n1n2Lm4k0j3m1j2n5l3J0p7m2Km5pm5p0J4l2l5Ro0m5
20118B1241l2m5Pn1m6K9m8l5Mo3pJ6m9k6oJ4Ml4L6N0RJ3j5N0P6nP0R1J6O2P7J08
20484B1511J39O7R5J37J08J01P4J05Q6J1Q9P9j1M2J0m5J1Kk0k7l0J0j1k1J2lJ7J4
20803B2552k9MJ4J0Om3k3k4m5J9k0m6K4m1m5K9l5j6J0o0j7j0m4J4j6m6%m0l5%m0k8
21169B1979mj1Mj8k8JRJ5mj6L2M8L3K7L6P9O6L5P8R1P7R5J02J07J10TJ01P9J02R9
21512B3434O3Q2P6N1O3N4M2L6K6K2j0kKn1k2ln0k4k3k7K0j6j2L5j5J3M8j8RK1k6
21866B3798J6J1l0lTk9l5j4ml6k6k2n3k3l1n6j0n0p2j0n7o5Jl6m1j3m2l4k2l4l3m2
22232B2900l1m2o8l4l5n7l9n5n0l2n9k2mm9k4j5l0Oj0l3j1j8j0MqJRJ8J7J6M9L5
22597B2319K6O8N3M1O5M6M4M6L5M8L1QK8N3O7M0L0M5K6M7M2kN1L7k3M2L5k1J5Qk1
22951B3329JK3J8qK9M4j5J4K4j4N1L7j4M9J9j3N8L4QK6J3K4J7J8M7J3KK8K4J6mJ6
23317B3914K7k8J0J1o4PM0m3k3J0oj3rMj4LJ5l2J3M6qK1J0k1M5J4j9J2k3K1N1j4Q
23694B3965J2K1L5n0K3R3j4L6M6m6N5O9MO3L5J6M5RN4P3L0O2L6K1P1L8L3M3J0K5L2
24048B4945L1M0L6O2N2M4Q2N3N1P0M2O3L7J2P3M3L7O9K1N6M9oO4K8k1L0j4jJ2n9
24391B6001Rj1r6m3j10j81j70k21j30%L5J32J40J03J44J30J93K34J33J46J31N7R1
24654B6717P2M6M1K2Q1L6k8K5k4p2r2j63k08l18k67N6L14N07N33K75K17K02Q4J29
24928B8185N2jR2%J5P9k6K7N4J7P2j8MJ17L5L6K4KR9ll0Q7QK8P9K5N3m6j0J30k2j0
25293B9154P0l1Q3L5q9J05N7l8O9kK2O9k5N2N5RM3k6L0N4k4P9J7n9P6J2J1R7JL2
25636B9938N0J3N1m3L4J22m7K4O2m8O2%l8J02kNN4m0P1L9n6O2NmM1n1P0N7n6R4J8
25990C0589p2M0j5K7O7k7M1J6j0O2j1L0M4n3M4Ln4P4Mj6K4m6L4Ql7J06Lo4N3oRL8
26356C0905j1L2qK2O1m8M2O4m6L4l0m8Q2k0oM4k7Q2Pn9J15j2o2O8l9NN8k4N1J6j5
26710C1233J9o2L7N2n3J9n1LJ12r8J3J04j13M0L3p7J21n3r7J52npK3j30N7K6j14P3
27030C1257J5rO6p2Okp7J10J8o7P5l9m6J5JQ8o6r9Q5m2k0N4n8P5J6r6J01or3L7l0
27384C1197L0J6o5R1j2m2R5r6oR8j40K8N9j41J17R0j78k6Q6P0l8r4N5j4o2P7l6k4
27704C1135Q8n0l6J3l0M8nl9K8k3J0J9q9m3M0O5j2r2O5O4n2L2m3r6Q2P0pp5j17Q2
28047C1032J16p5j05J8P4k3m1P9n4l6J65r1j45J49k0j00L4m3O0Q3j02n5K2M4P8j5
28344C1049jn1k20N7K36j6j66MN8J5L2L1q4j0K43J17m66k50K34J73m0m9qLK9kj8
28652C0900j9O2K55q5n69J30L40pq6q0r3J37oj57Q1L9J31J70m58p6M41j77l24L20
28926C0869K52j22m27n6L51oJ0P07l05j456Q50M63o00J28K09j91J30J58l62K66M97
29166C1365k98p3m6r08M68P21l42n38L85P1q7M6mk7J38M51n20p53Q34J117k092L31
29418C0239O59m22M6L50l45K66N41p97l6J05k51L08J06l00K19K64k47j66N2J20
29646C0711J05R5J09k80l66J03K32Q5r5N3P9k48R3K86m81k0N70j96l27O88o37n93
29897B9966P91j77n8J197q91j397J445M93r11L44n59J0N70j83lP1n49N13M71q98L14
30137C0559N18o96r3L20m5o2K29J71n80n1N06j67k50K37j17N2J00k13L48J75p69
30377C0172L40Q10o78r40Q15P39j020k05O77k57o6Q42n08r69R87P23j384j63P38
30594C0653J54o06K25L80l12j05K38R4Ql26j45K08N3j67n8K28P1l3P05J43k096Q06
30846C0118K58j53M88j06j14M20r99M25J184j603p5J137o33l96O23K08r0o25J96
31063C0263Q64p30o31Q45K45o06k6M7J34K66P0k79o5K26l52k78K88N2L7O1j95K60
31314C0496K04m31R9L7j98L24n0l77K46P8m4J29k50j27K08J4r8J00J36j83j23K29
31565C0419M5j74Rl1jP3k5QRLJ2j26L2J21q4J1K8q3O7J3o4K8mM0j4p4Q4k8n9J25n3
31920C0307q0R4j4l4Kk7K8
##END=

