##TITLE=TPA measurement2
##JCAMP-DX=4.24
##BLOCK_ID=1
##DATATYPE=INFRARED SPECTRUM
##OWNER= 
##ORIGIN= 
##SOURCEREFERENCE=
##XUNITS=1/CM
##YUNITS=TRANSMITTANCE
##FIRSTX=3.998485E+002
##LASTX=3.999913E+003
##MINX=399.85
##MAXX=3999.91
##MINY= 10.73
##MAXY= 90.43
##XFACTOR=1.249972778172271100E-001
##YFACTOR=2.825959436954637300E-003
##$CORRECTIONDATE=<06/10/26 10:55:00>, <System Administrator>, <Scan on IRSpirit, SNO: A22415600520>
<06/10/26 10:55:00>, <System Administrator>, <Measured with accessory: 1102 (S1102SC00485)>
<06/10/26 10:55:00>, <System Administrator>, <Atmosphere Correction, H2O=ON(Low=0, High=0), CO2=ON(Low=0, High=0), Threshold=1.0, Smoothing=ON>

##FIRSTY=10
##NPOINTS=2522
##XYDATA=(X++(Y..Y))
3198B1386n6j730q52P23J632q28l210K69M53rM16N61J446k146p20J362O04j797q39L17
3427A6982r8m35j07j20m21j33l74j276m82Q9p81l33l72n53L89k11L4J349N07O95
3655A4349J098N43J027j4q11L72N37Q6o8k80J15j10n45K8j25n98k31r8l97m03R3
3895A4568K26l68m23r8l65l80k71j56o7k68K84P15K77M9k34l75j13j89l19j64k71
4135A2058l95l46j30J3l10j87J97P7N47Q11O44J011Q24O49P89K44O5K8k81k9j01l21
4387A5857j3j43j92kk04r6m4j22J51qmK93O8K72M94L90R00R46P29R26O96O04M45
4649B1943O3K21mk00K46k5k28J00k50j93J36k73k06M5k42j71n0r7r0k48j23M8j11
4912B0291j07j48k02p0j22j13j06j81mo0j70o5k08q9P7k48j48pk07n3p1j98m0j63
5186A7588j40o2k88q6M2j71j23k29j87j6k38j09L7o59j47r8l65j71l04m34j50l05
5438A3385l23k34l67k27k81k19K49L77L40l8l11k49m20m65l45n15m81m82o64m49
5666H281m81o17m26n56m81l05m85k85k82m35q0m9N2N43R60J397J428J630K102K397
5895A4308K921K413J027L11P3l4q9k37j85j36k88k54k09l15l27l25l32l49m16l89
6123A7168m37n15m20n01o17n37o19o25n16m80l4N52J144J871K047J856J390P78L99
6340B1904P4j76k82l58l95m01l31k70l01k05j44k70k32k26k65o7j29k56n4j37k83
6580A7196j61j78j87k35l11j38j91k44rj39k25o4j99k42k35l03j65k66l58j16j60
6820A3070k11j55k85k43k77m14l18l63l97l67m99m35m92o15m55n96n52j59J9R57
7048G213J716P50j68R74L061K665rj164r05j000q24n90o60m60m67m69k53l62k44
7265H804j62l19j39k06k87o2j92j33mj88J4O4m1K03J05R0K98J78K63L00K18M12L27
7528I543L10M50L07M44N05L44N10M48L70N24M05M61N20L65M85M27L16M27K84K75
7757A7720L10J56K35J27J5J18j45o5N3n71m29K94L92L86N6n0J9j240j365Q27J319
7997A8162K65J46R9o9M9p1j69j79j61n0m01j105j251L25K958L022M47q28k99k08k55
8237B0427m1j11j32k7j02q4J1o0o3on0k3J0m9o5p1m3Jo6m0J2o5l0k2j14n2n4j21
8556A8970q4j06q7q0j66j00p7j26j2M1N2O4L7O5l6j04l5j28j69j80l16k49l07n42
8831A6325m81n90q60r00j060o83M54J466K208K005J257M11l45l28J9n4j89m28p44
9048A7483q65j175j160j10R28J437J346R68O56L32K17J28j8N3J4q6j0r1j08j8j50
9288A9771j34q6k10j08q3k04j17j52k04j32k28k12j58k05m2J2PR8k9m6Pr6k6o3j74
9573A7186n8j30j87j07j92r0l2j51k2om4L4q6o9m9j97r3j07j91o8j83j91q9k21
9847A4657j33j46k65j00k08k46j02l04k35j72l63j78k31l27q5k36k00n4k60q0j02
10087A0630k59k4k39k97j59m77l30l11n84k48l37l84L4j19J19L86J76N23N05L81P07
10327I693M63N00O41L07M93M46K38N27L73M09O67M98O82O69L20J87p1J26P89R46
10556A8903R34O26J95Q6k6L6L19L68N61O29N80O94N82N48M85M27M96K68K39K60J9
10796B7229R4M8p7Kj28j21o5j78j65l00k44j18l07l31k46l07l51n18m15m21n75m23
11047B2083m11l86l36m09l47k08J52J60j79l17m67m49o57r12o96q07q55j33K69
11264A5095M94M85j58J5j20o90pp30p35L63l16L54R46L71J286J063Q50J688J146J074
11493B2474J190Q77J079O30N51O45L72L02R2K90J44j05M64n4q05M17k20QJ63p00
11721B7814J3o9k59L25m30n40L48m21j98J23k78j44j16j06m1m11j13l84n33J09
11950B4689k73p93j37p14o26m97r71l65j274l246J21j38K427M126J682P28O0m5K79
12167B5033r99j6K29o79n8l1l92K36m99o27M11lm03Q0n88K71r4m77L91j84o31L59
12418B1329l45n02L09k34r07j88j69J32o03l51M4r12m91k46m21K48P85J113J285
12635A9876J022P6j0k05l63k00l55k32k46k85j68l63k24k35m28j70l40l06m2l85j91
12875A6226o3k29K33J45l16p4j87q5J2n42j08k9m01p1k22l05N3l64n53J6l58j89
13126A2589k12l75M1k66m86J29k16r0j51p10l8k35n14r2l91n73j9m79l25J33p84
13366F936R8J15n94P67Q4P1R52p0M61R46n33Q74N93K7J364N26L56J682q9J261J358
13606A7185o24J767P80Q5J958L59Q74J747O8J480J455p79J891N07K60J081l78L61
13812C0077P09o59M35L60o82K14j28K21K82p45M50P6n27N62l03l63N58q44Q1M11
14040C0185o42j1O2l15P7m43l0K66o88J4L00o37R9M9k14J22j58j48P0j32K1j28r9
14303B7620K00j11j85j9j09J17m8q5J63k33oJ83j70O3L6j57J21o9M6J26k74J28N9
14566B7396j93L06j90k54M12j78k69K30r4J04L6j29J67p8R6K16m73K46K22k58K29
14806B7544K7j46J86j15N0Q8k27J71j9j22L11j42j21J97j41J41Rj77K20j13q9J95
15057B7727j43P4M8r1K45k51o3K88k90M9J45k73J97l7j50K91k14j6J56l32K55O2k49
15320B7428M01j89k39L87j97m0Q7j99L11j18j68L71l24kK96l79K00J30k28K64k96
15560B7496k0K59l54K95n6m58N22j82k62L13n17J65Q6n98O67Ol01O39o55j3P42
15800B7774m12M95l9k67P30m81j21M82n11K93J03m52N68k16k07L04m58L12J08n37
16028B7468P02k81n57O01n06J11N63n89K92j05k17P41p05q3O05q20L06K28o10N46
16257B7690l25k19M81o42K98L32o77L97j57m88L70l88KM35l53J1Oj78K20l01m1L06
16508B6779l80Q8J70k76K17p2j20K81k83n3K14k47N3M0j12J50j37jJ47k00J37L7
16759B6432k37J71q3o0K03k18MJ13j59J23r1j07K42j47m3J40j69J03K0j38K18j03
17011B6214q5K20j08J42Q1l18J42jk5K25k96J11K37k92K70n3k24L91k31J56L65p15
17262B6206J98m1m37N56l17l54M83j31J6Rl10L23n7k45K60k09n2P4l05J54P4r8J70
17525B5967j46J5K5k25K73Pk28K33j90j22K27k11kP8j09K20j17k44J02o3Q9P0k03
17787B5446R1j3r2O2j76N5J40j82M0l6r9J52j19n2J05r1J56l3l13J3k6o1J8p1j3
18073B4901j0r4O3N0j41N5m9o6K6p0k2j1m5jl6j4K1o2k2Jm4J3j4m8k6j1n0J0n5K8
18416B4277ln3M5k3k2O2l1kJ3l4L8l4m7L3q0MJ02k3j6km9nl4j1Qm7J2m2n7M4r3m5
18781B3885J09Ll7k1o5Kj8r3Plk9k2o1j0j5l6J5n7m8K0k7j6k5o3j4k0l6K3m5l6M
19136B3271o3k6k4m8K3l2m6K6l8m3pj6J8l6n1On1k5J7l4J2%n2j0j8j2k6n8K1k0p9
19490B2579Rk2k3K3n6j4J6o7qkn0j2l3j0J7l9QMo2k0qLJ3m1j9l2n6J4j0m0l8o3Oj4
19878B1953p1J2m1o6L3n3n8J6o4k2Qp5k3k7m7Pn2l4Op6k5Lp0l4k8l1Km9l3jm5j1
20244B1004K0%k8m2K6J7m2PJ4K5M2j7M5R0J6M6O2M5P8O3J01J15P9J32J15J04J24M9
20564B2290J07J15mP5Q1j2M3K0j8Jm3j7nl2K1ll5jpK4Tj6L1pm9J9jl9k4k1j4l6k2
20941B2445J5k7l1j9l6Qj1m1J0k4m4Ol2l8j1l9k6j1k0j2j7jml1j3k0nL3j1%M6J7
21306B2056L7M9K9P3O0M3Q9Q0Q4R9Q5J16J05J00J34Q9P9J03P8P6N5N2P9M7N6N0oK3
21626B4020J6k2lm2TJl6l3k2k4K3pk4L0OJ3L1mJ2%j4K7j3k9Lj7nj7l8kl3n0j6m5
22014B3644l4k5n4j7l2o1k9n3m2j5n3k4j6n3k0k9m2k4o2m2k4p2k9j9o8m3m6m4j8o1
22357B2493m5j3m6j9pl3j2j8j4ol3MK7j1j0qPL0KK7P0N0M0M7O4O2L5M7M8L0L6K6
22723B2870L8N9L6TL7M2O1L8L7L2PM6L3j3K3K1OMk0J5J3k0K8K2OK8lK3K8k6L5L8p
23100B3573N2L4oL5L2M5L6oK9L0J6L4J2J9NrN5Rl1M2Mk0K2j5LJn6oJ0k3jkmj1j9P
23511B3896OJ3J2j7K8L4j4J9J5j0QnK5L0j0K1J7KJ1k7L5P2lK8K5%Q1K8qQ6L4OO6K4
23900B4528K3N8M9N5L9M8O2K4L0M0J9K4J8L3M8M4N7M2O3Q4L3O4P9K6N7M4L5R1L1
24231B5848J1O2N0O2jqQ8lj7P7j0kK1o6qk7r8o1j20j38j63k59j20PL2J61J26P8J74
24562B5696J47J88K38J31J34J09N7J16O2L8O8LK8N5K3K2k7n0j11j90k11l31k48R4
24836B6041K90M85N47K80K44K21M1J01P5PR0J3J0N9j2N1N0lN6J5L1N2J6J03L0j0
25133B8883J10k3j7R6k0O4N9o1R4J6m2J27j3k2O8m3Q0M9q5J07O3k6P7k7PQ0j7M9M7
25465B9680QK1n8P4J02q1M3O8l9N5L5M0O7l4N0N3qN8k7L3J19m5J4O1mN9n8j6J41
25796C0411k1JL3o3J02L9n4R3k6rP7o6N0M8n8J06oo1R7k6kP6lM8l4j2J07o3RQ0q5
26150C0788P7O5j06N8K8l8K6m1N0K8q8Q6L9n7O5nj1N9lK3klM4k8O8Q9o3Oml0O6l7
26516C1149j5N3k7O9J8p4Q2Ol7N4m9J5N4l9O6J4l3O0m3LN7p8mL4K5N9p7J4Q3r5M1
26870C1385N8j02L3Ol5Q7J5J7k8r8P4Jp7O3nJ5K6r5K6j7n3J34k3o0Q8n6rL5m9N9n5
27224C1360p5J11l4l2N4o1M1Ro8R5k2o8O4l4L0M4p9K8kk2N5o8K1O2j13L0K3r5J34
27555C1388O4j57j8M7%lJ3mo7L2L6r8K9N4n3L0pl7L1k2Mjk3P0m7q2L2m9M7N6j44
27910C1121K5O4m4R7k0j18O3L7K0m0j52R1J37q2r1ON3pm3N3m3j0J68q3j48J09m6j02
28229C1015K8m1O6J12o6p7NM9O5RNo9j65L2J79Nj78K1J03m5K2P4j13NK37R2l61
28538C1009k71J61J91m3l8J5l9M9K1m8K8P2K03q8n77J08L65Nj13r7n9J65j3j37O1
28823C0930j5J45K01m72n8M27j55l22K19K30n1l70k9L02l8J7O60k95j299P42L95n32
29075C0632J05J94j63J20K07l35K46M74l11om8r86M97P16l82n01L67M6n0N0lj3
29326C0856R9M13m51o77P25J035k071L70O28l37N4L29l03K16N25p55l5J10k34K52
29555C0749J08k79J81K62k25j33O8R5P9Q7J10k42l45O7K24P9r7N1Q1k08P0K53m13
29817C0622k5M80j85k70O12n94n47P42j43l2J157q02j385J302M73p88K39n62R1N11
30046C0896j70K5N1n24M86M18p77K62M03n64o7K40Nl5J33J50m33n3M03j77k09K11
30297C0674j11P3Q4k17L50K50p53K52P90o21q99P26O56r43j45O22k15l9Q43m82r46
30537B9949Q81P00j314j84O56J38n11K14L58k79q0K34P4j1l11j80J59Q1q0l7J90
30777C0647Q0m5O35K14k048P24K76r2L82j43n3M63r34L61J160j489j77J052n21l90
31006C0102N67J94o6n68J80P70o60o19P70K23n85nP6J46K54P8k95p0K75l65l01
31245C0101L06OL1J61j90J71J56l27N9mj35K98o5l18K28N8l1R8k39q9J84j6r4J29
31520C0478J39j66j13K16L9k02Kl7mO8j9L1lk8O2j05k2J24n0OK8q6N5J5q3QJ8M7l1
31851C0387n2J11l1o0J19n1o5O2n0j5J6j2L9
##END=

